LAMMPS data file Created by LigParGen - (Written by Leela S. Dodda)

      83 atoms
      82 bonds
     152 angles
     199 dihedrals
      49 impropers
 
      83 atom types
      82 bond types
     152 angle types
     199 dihedral types
      49 improper types
 
  -10.119390    39.880610 xlo xhi
   -7.049820    42.950180 ylo yhi
   -1.031070    48.968930 zlo zhi

Masses

       1     12.011  
       2     12.011  
       3     12.011  
       4     12.011  
       5     12.011  
       6     15.999  
       7     15.999  
       8     12.011  
       9     12.011  
      10     12.011  
      11     12.011  
      12     12.011  
      13     15.999  
      14     15.999  
      15     12.011  
      16     12.011  
      17     12.011  
      18     12.011  
      19     12.011  
      20     15.999  
      21     15.999  
      22     12.011  
      23     12.011  
      24     12.011  
      25     12.011  
      26     12.011  
      27     15.999  
      28     15.999  
      29     12.011  
      30     12.011  
      31     12.011  
      32     12.011  
      33     12.011  
      34     15.999  
      35     15.999  
      36     12.011  
      37     12.011  
      38      1.008  
      39      1.008  
      40      1.008  
      41      1.008  
      42      1.008  
      43      1.008  
      44      1.008  
      45      1.008  
      46      1.008  
      47      1.008  
      48      1.008  
      49      1.008  
      50      1.008  
      51      1.008  
      52      1.008  
      53      1.008  
      54      1.008  
      55      1.008  
      56      1.008  
      57      1.008  
      58      1.008  
      59      1.008  
      60      1.008  
      61      1.008  
      62      1.008  
      63      1.008  
      64      1.008  
      65      1.008  
      66      1.008  
      67      1.008  
      68      1.008  
      69      1.008  
      70      1.008  
      71      1.008  
      72      1.008  
      73      1.008  
      74      1.008  
      75      1.008  
      76      1.008  
      77      1.008  
      78      1.008  
      79      1.008  
      80      1.008  
      81      1.008  
      82      1.008  
      83      1.008  

Pair Coeffs 

       1      0.066  3.5000000 
       2      0.066  3.5000000 
       3      0.066  3.5000000 
       4      0.066  3.5000000 
       5      0.070  3.5500000 
       6      0.210  2.9600000 
       7      0.140  2.9000000 
       8      0.066  3.5000000 
       9      0.066  3.5000000 
      10      0.066  3.5000000 
      11      0.066  3.5000000 
      12      0.070  3.5500000 
      13      0.210  2.9600000 
      14      0.140  2.9000000 
      15      0.066  3.5000000 
      16      0.066  3.5000000 
      17      0.066  3.5000000 
      18      0.066  3.5000000 
      19      0.070  3.5500000 
      20      0.210  2.9600000 
      21      0.140  2.9000000 
      22      0.066  3.5000000 
      23      0.066  3.5000000 
      24      0.066  3.5000000 
      25      0.066  3.5000000 
      26      0.070  3.5500000 
      27      0.210  2.9600000 
      28      0.140  2.9000000 
      29      0.066  3.5000000 
      30      0.066  3.5000000 
      31      0.066  3.5000000 
      32      0.066  3.5000000 
      33      0.070  3.5500000 
      34      0.210  2.9600000 
      35      0.140  2.9000000 
      36      0.066  3.5000000 
      37      0.066  3.5000000 
      38      0.030  2.5000000 
      39      0.030  2.5000000 
      40      0.030  2.5000000 
      41      0.030  2.5000000 
      42      0.030  2.5000000 
      43      0.030  2.5000000 
      44      0.030  2.5000000 
      45      0.030  2.5000000 
      46      0.030  2.5000000 
      47      0.030  2.5000000 
      48      0.030  2.5000000 
      49      0.030  2.5000000 
      50      0.030  2.5000000 
      51      0.030  2.5000000 
      52      0.030  2.5000000 
      53      0.030  2.5000000 
      54      0.030  2.5000000 
      55      0.030  2.5000000 
      56      0.030  2.5000000 
      57      0.030  2.5000000 
      58      0.030  2.5000000 
      59      0.030  2.5000000 
      60      0.030  2.5000000 
      61      0.030  2.5000000 
      62      0.030  2.5000000 
      63      0.030  2.5000000 
      64      0.030  2.5000000 
      65      0.030  2.5000000 
      66      0.030  2.5000000 
      67      0.030  2.5000000 
      68      0.030  2.5000000 
      69      0.030  2.5000000 
      70      0.030  2.5000000 
      71      0.030  2.5000000 
      72      0.030  2.5000000 
      73      0.030  2.5000000 
      74      0.030  2.5000000 
      75      0.030  2.5000000 
      76      0.030  2.5000000 
      77      0.030  2.5000000 
      78      0.030  2.5000000 
      79      0.030  2.5000000 
      80      0.030  2.5000000 
      81      0.030  2.5000000 
      82      0.030  2.5000000 
      83      0.030  2.5000000 

Bond Coeffs 

       1   268.0000     1.5290 
       2   268.0000     1.5290 
       3   268.0000     1.5290 
       4   317.0000     1.5220 
       5   570.0000     1.2290 
       6   214.0000     1.3270 
       7   320.0000     1.4100 
       8   268.0000     1.5290 
       9   268.0000     1.5290 
      10   268.0000     1.5290 
      11   317.0000     1.5220 
      12   570.0000     1.2290 
      13   214.0000     1.3270 
      14   320.0000     1.4100 
      15   268.0000     1.5290 
      16   268.0000     1.5290 
      17   268.0000     1.5290 
      18   317.0000     1.5220 
      19   570.0000     1.2290 
      20   214.0000     1.3270 
      21   320.0000     1.4100 
      22   268.0000     1.5290 
      23   268.0000     1.5290 
      24   268.0000     1.5290 
      25   317.0000     1.5220 
      26   570.0000     1.2290 
      27   214.0000     1.3270 
      28   320.0000     1.4100 
      29   268.0000     1.5290 
      30   268.0000     1.5290 
      31   268.0000     1.5290 
      32   317.0000     1.5220 
      33   570.0000     1.2290 
      34   214.0000     1.3270 
      35   320.0000     1.4100 
      36   268.0000     1.5290 
      37   340.0000     1.0900 
      38   340.0000     1.0900 
      39   340.0000     1.0900 
      40   340.0000     1.0900 
      41   340.0000     1.0900 
      42   340.0000     1.0900 
      43   340.0000     1.0900 
      44   340.0000     1.0900 
      45   340.0000     1.0900 
      46   340.0000     1.0900 
      47   340.0000     1.0900 
      48   340.0000     1.0900 
      49   340.0000     1.0900 
      50   340.0000     1.0900 
      51   340.0000     1.0900 
      52   340.0000     1.0900 
      53   340.0000     1.0900 
      54   340.0000     1.0900 
      55   340.0000     1.0900 
      56   340.0000     1.0900 
      57   340.0000     1.0900 
      58   340.0000     1.0900 
      59   340.0000     1.0900 
      60   340.0000     1.0900 
      61   340.0000     1.0900 
      62   340.0000     1.0900 
      63   340.0000     1.0900 
      64   340.0000     1.0900 
      65   340.0000     1.0900 
      66   340.0000     1.0900 
      67   340.0000     1.0900 
      68   340.0000     1.0900 
      69   340.0000     1.0900 
      70   340.0000     1.0900 
      71   340.0000     1.0900 
      72   340.0000     1.0900 
      73   340.0000     1.0900 
      74   340.0000     1.0900 
      75   340.0000     1.0900 
      76   340.0000     1.0900 
      77   340.0000     1.0900 
      78   340.0000     1.0900 
      79   340.0000     1.0900 
      80   340.0000     1.0900 
      81   340.0000     1.0900 
      82   340.0000     1.0900 

Angle Coeffs 

       1     58.350    112.700
       2     58.350    112.700
       3     63.000    111.100
       4     80.000    120.400
       5     81.000    111.400
       6     83.000    116.900
       7     58.350    112.700
       8     58.350    112.700
       9     58.350    112.700
      10     63.000    111.100
      11     80.000    120.400
      12     81.000    111.400
      13     83.000    116.900
      14     58.350    112.700
      15     58.350    112.700
      16     58.350    112.700
      17     63.000    111.100
      18     80.000    120.400
      19     81.000    111.400
      20     83.000    116.900
      21     58.350    112.700
      22     58.350    112.700
      23     58.350    112.700
      24     63.000    111.100
      25     80.000    120.400
      26     81.000    111.400
      27     83.000    116.900
      28     58.350    112.700
      29     58.350    112.700
      30     58.350    112.700
      31     63.000    111.100
      32     80.000    120.400
      33     81.000    111.400
      34     83.000    116.900
      35     58.350    112.700
      36     37.500    110.700
      37     37.500    110.700
      38     37.500    110.700
      39     37.500    110.700
      40     37.500    110.700
      41     37.500    110.700
      42     37.500    110.700
      43     37.500    110.700
      44     35.000    109.500
      45     35.000    109.500
      46     35.000    109.500
      47     37.500    110.700
      48     37.500    110.700
      49     37.500    110.700
      50     37.500    110.700
      51     37.500    110.700
      52     35.000    109.500
      53     35.000    109.500
      54     35.000    109.500
      55     37.500    110.700
      56     37.500    110.700
      57     37.500    110.700
      58     37.500    110.700
      59     37.500    110.700
      60     35.000    109.500
      61     35.000    109.500
      62     35.000    109.500
      63     37.500    110.700
      64     37.500    110.700
      65     37.500    110.700
      66     37.500    110.700
      67     37.500    110.700
      68     35.000    109.500
      69     35.000    109.500
      70     35.000    109.500
      71     37.500    110.700
      72     37.500    110.700
      73     37.500    110.700
      74     37.500    110.700
      75     37.500    110.700
      76     35.000    109.500
      77     35.000    109.500
      78     35.000    109.500
      79     37.500    110.700
      80     37.500    110.700
      81     37.500    110.700
      82     83.000    123.400
      83     33.000    107.800
      84     83.000    123.400
      85     33.000    107.800
      86     63.000    111.100
      87     33.000    107.800
      88     33.000    107.800
      89     58.350    112.700
      90     37.500    110.700
      91     37.500    110.700
      92     63.000    111.100
      93     58.350    112.700
      94     33.000    107.800
      95     33.000    107.800
      96     33.000    107.800
      97     63.000    111.100
      98     33.000    107.800
      99     33.000    107.800
     100     37.500    110.700
     101     37.500    110.700
     102     33.000    107.800
     103     33.000    107.800
     104     83.000    123.400
     105     37.500    110.700
     106     63.000    111.100
     107     63.000    111.100
     108     83.000    123.400
     109     63.000    111.100
     110     33.000    107.800
     111     33.000    107.800
     112     63.000    111.100
     113     33.000    107.800
     114     37.500    110.700
     115     33.000    107.800
     116     33.000    107.800
     117     33.000    107.800
     118     37.500    110.700
     119     33.000    107.800
     120     58.350    112.700
     121     33.000    107.800
     122     58.350    112.700
     123     33.000    107.800
     124     33.000    107.800
     125     33.000    107.800
     126     33.000    107.800
     127     33.000    107.800
     128     33.000    107.800
     129     33.000    107.800
     130     33.000    107.800
     131     33.000    107.800
     132     58.350    112.700
     133     37.500    110.700
     134     63.000    111.100
     135     33.000    107.800
     136     63.000    111.100
     137     33.000    107.800
     138     33.000    107.800
     139     33.000    107.800
     140     83.000    123.400
     141     33.000    107.800
     142     33.000    107.800
     143     33.000    107.800
     144     33.000    107.800
     145     63.000    111.100
     146     33.000    107.800
     147     33.000    107.800
     148     37.500    110.700
     149     37.500    110.700
     150     33.000    107.800
     151     33.000    107.800
     152     33.000    107.800

Dihedral Coeffs  

       1      1.300     -0.200      0.200      0.000 
       2      0.000      0.000      0.000      0.000 
       3      4.669      5.124      0.000      0.000 
       4      1.300     -0.200      0.200      0.000 
       5      1.300     -0.200      0.200      0.000 
       6      0.000      0.000      0.000      0.000 
       7      4.669      5.124      0.000      0.000 
       8      1.300     -0.200      0.200      0.000 
       9      1.300     -0.200      0.200      0.000 
      10      0.000      0.000      0.000      0.000 
      11      4.669      5.124      0.000      0.000 
      12      1.300     -0.200      0.200      0.000 
      13      1.300     -0.200      0.200      0.000 
      14      0.000      0.000      0.000      0.000 
      15      4.669      5.124      0.000      0.000 
      16      1.300     -0.200      0.200      0.000 
      17      1.300     -0.200      0.200      0.000 
      18      0.000      0.000      0.000      0.000 
      19      4.669      5.124      0.000      0.000 
      20      0.000      0.000      0.300      0.000 
      21      0.000      0.000      0.300      0.000 
      22      0.000      0.000      0.198      0.000 
      23      0.000      0.000      0.300      0.000 
      24      0.000      0.000      0.198      0.000 
      25      0.000      0.000      0.300      0.000 
      26      0.000      0.000      0.198      0.000 
      27      0.000      0.000      0.300      0.000 
      28      0.000      0.000      0.198      0.000 
      29      0.000      0.000      0.300      0.000 
      30      0.000      0.000      0.198      0.000 
      31      0.000      0.000      0.300      0.000 
      32      0.000      0.000     -0.100      0.000 
      33      0.000      0.000      0.300      0.000 
      34      0.000      0.000     -0.100      0.000 
      35      0.000      0.000     -0.553      0.000 
      36      0.000      0.000      0.300      0.000 
      37      0.000      0.000      0.300      0.000 
      38      0.000      0.000      0.300      0.000 
      39     -2.060     -0.313      0.315      0.000 
      40      0.000      0.000      0.300      0.000 
      41      0.000      0.000      0.300      0.000 
      42      0.000      0.000      0.300      0.000 
      43      0.000      0.000     -0.100      0.000 
      44      0.000      0.000     -0.100      0.000 
      45      0.000      0.000     -0.553      0.000 
      46     -2.060     -0.313      0.315      0.000 
      47      0.000      0.000      0.198      0.000 
      48     -2.060     -0.313      0.315      0.000 
      49      0.000      0.000      0.300      0.000 
      50      0.000      0.000      0.198      0.000 
      51      0.000      0.000     -0.100      0.000 
      52      0.000      0.000     -0.100      0.000 
      53      0.000      0.000      0.300      0.000 
      54      0.000      0.000      0.300      0.000 
      55      0.000      0.000      0.000      0.000 
      56      0.000      0.000     -0.100      0.000 
      57      0.000      0.000      0.300      0.000 
      58      0.000      0.000     -0.100      0.000 
      59      0.000      0.000      0.300      0.000 
      60      0.000      0.000      0.300      0.000 
      61      0.000      0.000     -0.553      0.000 
      62      0.000      5.124      0.000      0.000 
      63      0.000      0.000     -0.553      0.000 
      64      0.000      0.000      0.300      0.000 
      65      0.000      0.000      0.300      0.000 
      66      1.300     -0.200      0.200      0.000 
      67      0.000      0.000     -0.100      0.000 
      68      0.000      0.000     -0.100      0.000 
      69      0.000      0.000     -0.100      0.000 
      70      0.000      0.000      0.300      0.000 
      71     -2.060     -0.313      0.315      0.000 
      72      0.000      0.000      0.300      0.000 
      73     -2.060     -0.313      0.315      0.000 
      74      0.000      0.000      0.300      0.000 
      75      0.000      0.000      0.300      0.000 
      76      0.000      0.000     -0.100      0.000 
      77      0.000      0.000     -0.100      0.000 
      78      0.000      0.000      0.300      0.000 
      79      1.300     -0.200      0.200      0.000 
      80      0.000      0.000      0.300      0.000 
      81      0.000      0.000      0.300      0.000 
      82      0.000      0.000      0.300      0.000 
      83      0.000      0.000     -0.100      0.000 
      84     -2.060     -0.313      0.315      0.000 
      85      0.000      0.000      0.300      0.000 
      86      1.300     -0.200      0.200      0.000 
      87      0.000      0.000     -0.100      0.000 
      88      0.000      0.000      0.000      0.000 
      89      0.000      0.000      0.300      0.000 
      90      1.300     -0.200      0.200      0.000 
      91      0.000      0.000      0.300      0.000 
      92      0.000      0.000      0.000      0.000 
      93      0.000      0.000      0.300      0.000 
      94      1.300     -0.200      0.200      0.000 
      95      0.000      0.000      0.198      0.000 
      96      0.000      0.000      0.300      0.000 
      97      0.000      0.000      0.300      0.000 
      98      0.000      0.000     -0.100      0.000 
      99      0.000      0.000      0.000      0.000 
     100      0.000      0.000      0.300      0.000 
     101      0.000      0.000      0.300      0.000 
     102      0.000      0.000      0.300      0.000 
     103      0.000      0.000     -0.553      0.000 
     104      0.000      0.000      0.198      0.000 
     105      0.000      0.000      0.300      0.000 
     106      0.000      0.000      0.300      0.000 
     107      0.000      0.000     -0.553      0.000 
     108      0.000      0.000     -0.553      0.000 
     109      0.000      0.000     -0.100      0.000 
     110      0.000      0.000      0.300      0.000 
     111      1.300     -0.200      0.200      0.000 
     112      0.000      0.000     -0.100      0.000 
     113      0.000      0.000     -0.100      0.000 
     114      0.000      5.124      0.000      0.000 
     115      1.300     -0.200      0.200      0.000 
     116      0.000      0.000     -0.100      0.000 
     117      0.000      0.000      0.300      0.000 
     118      0.000      0.000      0.198      0.000 
     119      0.000      0.000     -0.553      0.000 
     120      0.000      0.000      0.300      0.000 
     121      0.000      0.000     -0.100      0.000 
     122      0.000      0.000     -0.100      0.000 
     123      0.000      0.000      0.198      0.000 
     124     -2.060     -0.313      0.315      0.000 
     125      0.000      0.000      0.000      0.000 
     126      0.000      0.000      0.300      0.000 
     127      0.000      0.000      0.300      0.000 
     128      0.000      0.000      0.300      0.000 
     129     -2.060     -0.313      0.315      0.000 
     130      0.000      0.000      0.198      0.000 
     131      0.000      0.000     -0.553      0.000 
     132      0.000      0.000      0.198      0.000 
     133      0.000      0.000      0.300      0.000 
     134      0.000      0.000      0.300      0.000 
     135      0.000      0.000      0.300      0.000 
     136      0.000      0.000      0.000      0.000 
     137      0.000      0.000     -0.100      0.000 
     138      0.000      0.000      0.300      0.000 
     139      0.000      0.000      0.300      0.000 
     140      0.000      0.000      0.300      0.000 
     141      0.000      0.000     -0.100      0.000 
     142      0.000      0.000     -0.553      0.000 
     143      0.000      0.000     -0.100      0.000 
     144      0.000      0.000      0.300      0.000 
     145      0.000      0.000      0.300      0.000 
     146      0.000      0.000      0.300      0.000 
     147      0.000      0.000     -0.553      0.000 
     148      0.000      0.000      0.300      0.000 
     149      0.000      0.000     -0.100      0.000 
     150      0.000      0.000      0.000      0.000 
     151      0.000      0.000     -0.553      0.000 
     152      0.000      0.000      0.300      0.000 
     153      0.000      0.000      0.300      0.000 
     154      0.000      0.000     -0.553      0.000 
     155      0.000      0.000     -0.553      0.000 
     156      0.000      0.000      0.000      0.000 
     157      0.000      0.000      0.300      0.000 
     158      0.000      0.000     -0.100      0.000 
     159      0.000      0.000      0.198      0.000 
     160      0.000      0.000      0.000      0.000 
     161      0.000      0.000      0.300      0.000 
     162     -2.060     -0.313      0.315      0.000 
     163      0.000      0.000     -0.100      0.000 
     164      0.000      0.000      0.300      0.000 
     165      0.000      0.000      0.300      0.000 
     166      0.000      0.000     -0.100      0.000 
     167      0.000      0.000      0.300      0.000 
     168      0.000      0.000      0.300      0.000 
     169      0.000      5.124      0.000      0.000 
     170      0.000      0.000      0.300      0.000 
     171      0.000      5.124      0.000      0.000 
     172      0.000      0.000      0.198      0.000 
     173      0.000      0.000      0.300      0.000 
     174      0.000      0.000      0.300      0.000 
     175      0.000      0.000      0.300      0.000 
     176      0.000      0.000      0.300      0.000 
     177      0.000      0.000      0.300      0.000 
     178      0.000      0.000      0.300      0.000 
     179      0.000      0.000     -0.553      0.000 
     180      0.000      0.000     -0.100      0.000 
     181      0.000      0.000      0.300      0.000 
     182      1.300     -0.200      0.200      0.000 
     183      0.000      0.000      0.300      0.000 
     184      0.000      0.000     -0.100      0.000 
     185      0.000      0.000      0.300      0.000 
     186      0.000      0.000      0.300      0.000 
     187      0.000      0.000      0.300      0.000 
     188      0.000      0.000     -0.100      0.000 
     189      0.000      0.000      0.300      0.000 
     190      0.000      0.000      0.300      0.000 
     191      0.000      0.000      0.300      0.000 
     192      0.000      0.000     -0.100      0.000 
     193      0.000      0.000      0.000      0.000 
     194      0.000      0.000     -0.100      0.000 
     195      0.000      0.000     -0.100      0.000 
     196      1.300     -0.200      0.200      0.000 
     197      0.000      5.124      0.000      0.000 
     198      0.000      0.000     -0.100      0.000 
     199      0.000      0.000      0.300      0.000 

Improper Coeffs 

       1      0.000      -1       2 
       2     10.500      -1       2 
       3      0.000      -1       2 
       4      0.000      -1       2 
       5     10.500      -1       2 
       6      0.000      -1       2 
       7      0.000      -1       2 
       8     10.500      -1       2 
       9      0.000      -1       2 
      10      0.000      -1       2 
      11     10.500      -1       2 
      12      0.000      -1       2 
      13      0.000      -1       2 
      14     10.500      -1       2 
      15      0.000      -1       2 
      16      0.000      -1       2 
      17      0.000      -1       2 
      18      0.000      -1       2 
      19      0.000      -1       2 
      20      0.000      -1       2 
      21      0.000      -1       2 
      22      0.000      -1       2 
      23      0.000      -1       2 
      24      0.000      -1       2 
      25      0.000      -1       2 
      26      0.000      -1       2 
      27      0.000      -1       2 
      28      0.000      -1       2 
      29      0.000      -1       2 
      30      0.000      -1       2 
      31      0.000      -1       2 
      32      0.000      -1       2 
      33      0.000      -1       2 
      34      0.000      -1       2 
      35      0.000      -1       2 
      36      0.000      -1       2 
      37      0.000      -1       2 
      38      0.000      -1       2 
      39      0.000      -1       2 
      40      0.000      -1       2 
      41      0.000      -1       2 
      42      0.000      -1       2 
      43      0.000      -1       2 
      44      0.000      -1       2 
      45      0.000      -1       2 
      46      0.000      -1       2 
      47      0.000      -1       2 
      48      0.000      -1       2 
      49      0.000      -1       2 

Atoms 

     1      1      1 -0.23900000    1.000  1.00000  0.00000
     2      1      2 -0.16760000   -0.525  1.00000  0.00000
     3      1      3 -0.02930000   -1.212  1.00000  1.39612
     4      1      4 -0.23780000   -0.813  2.33918  2.09419
     5      1      5 0.43990000   -2.736  1.07394  1.20735
     6      1      6 -0.44840000   -3.456  1.91368  1.73442
     7      1      7 -0.35830000   -3.185  0.09232  0.38161
     8      1      8 -0.06510000   -4.597  0.09387  0.15328
     9      1      9 -0.16510000   -0.773 -0.13445  2.38171
    10      1     10 -0.00990000   -0.992 -1.67573  2.16871
    11      1     11 -0.24680000   -0.824 -2.10902  0.69582
    12      1     12 0.43210000    0.147 -2.44830  2.89017
    13      1     13 -0.45220000    1.178 -1.94347  3.31334
    14      1     14 -0.35580000   -0.116 -3.78661  2.94689
    15      1     15 -0.05620000    0.894 -4.55876  3.59791
    16      1     16 -0.17100000   -2.393 -2.18967  2.65865
    17      1     17 -0.03100000   -2.916 -2.01068  4.14665
    18      1     18 -0.24400000   -1.796 -2.07777  5.18939
    19      1     19 0.43520000   -3.691 -0.68143  4.18957
    20      1     20 -0.45890000   -4.691 -0.47042  3.51425
    21      1     21 -0.34700000   -3.142  0.21288  5.05189
    22      1     22 -0.06690000   -3.859  1.44343  5.17286
    23      1     23 -0.17040000   -3.967 -3.17313  4.37912
    24      1     24 -0.02840000   -4.608 -3.49902  5.78553
    25      1     25 -0.24380000   -5.729 -4.53135  5.51571
    26      1     26 0.43960000   -3.537 -4.17789  6.66047
    27      1     27 -0.45070000   -3.017 -3.67291  7.64627
    28      1     28 -0.35460000   -3.195 -5.40067  6.16292
    29      1     29 -0.05590000   -2.203 -6.08943  6.92432
    30      1     30 -0.15960000   -5.187 -2.21612  6.46344
    31      1     31 -0.03560000   -6.207 -2.28598  7.64774
    32      1     32 -0.22990000   -5.726 -3.15281  8.82088
    33      1     33 0.43680000   -7.589 -2.77194  7.18791
    34      1     34 -0.45210000   -8.164 -3.75688  7.63510
    35      1     35 -0.35220000   -8.096 -1.96506  6.21442
    36      1     36 -0.05680000   -9.383 -2.35742  5.73488
    37      1     37 -0.23630000   -6.399 -0.85123  8.19757
    38      1     38 0.08710000    1.408  1.89505  0.47579
    39      1     39 0.08710000    1.368  0.98725 -1.03107
    40      1     40 0.08710000    1.407  0.12281  0.50883
    41      1     41 0.09870000   -0.859  1.88927 -0.55474
    42      1     42 0.09870000   -0.865  0.15949 -0.60987
    43      1     43 0.09740000   -1.068  3.20417  1.46985
    44      1     44 0.09740000   -1.340  2.46404  3.04789
    45      1     45 0.09740000    0.259  2.38298  2.31447
    46      1     46 0.10710000   -4.882 -0.90501 -0.19166
    47      1     47 0.10710000   -5.165  0.31155  1.06375
    48      1     48 0.10710000   -4.833  0.81810 -0.63269
    49      1     49 0.12080000   -1.198  0.11596  3.35863
    50      1     50 0.12080000    0.302  0.03022  2.52712
    51      1     51 0.10290000   -0.854 -3.20132  0.59339
    52      1     52 0.10290000   -1.624 -1.73230  0.05672
    53      1     53 0.10290000    0.143 -1.79559  0.29256
    54      1     54 0.10190000    1.043 -4.21131  4.62506
    55      1     55 0.10190000    1.830 -4.51550  3.03123
    56      1     56 0.10190000    0.554 -5.59704  3.63148
    57      1     57 0.11960000   -2.419 -3.26523  2.43395
    58      1     58 0.11960000   -3.152 -1.77593  1.98503
    59      1     59 0.10500000   -1.006 -1.34555  5.00216
    60      1     60 0.10500000   -1.339 -3.07109  5.22362
    61      1     61 0.10500000   -2.159 -1.84028  6.19256
    62      1     62 0.10860000   -3.706  2.05712  4.28237
    63      1     63 0.10860000   -3.457  1.98221  6.03615
    64      1     64 0.10860000   -4.925  1.26596  5.34592
    65      1     65 0.11900000   -4.798 -3.00329  3.67808
    66      1     66 0.11900000   -3.493 -4.10225  4.03166
    67      1     67 0.10240000   -6.090 -4.99697  6.43704
    68      1     68 0.10240000   -6.574 -4.07203  4.99310
    69      1     69 0.10240000   -5.374 -5.35136  4.87939
    70      1     70 0.10120000   -2.010 -7.04982  6.43697
    71      1     71 0.10120000   -2.562 -6.28189  7.93952
    72      1     72 0.10120000   -1.269 -5.51712  6.94087
    73      1     73 0.12200000   -5.674 -1.63308  5.67265
    74      1     74 0.12200000   -4.341 -1.60780  6.80783
    75      1     75 0.09980000   -4.779 -2.78228  9.22720
    76      1     76 0.09980000   -6.454 -3.13824  9.64197
    77      1     77 0.09980000   -5.598 -4.20112  8.53706
    78      1     78 0.10110000  -10.119 -2.32144  6.54362
    79      1     79 0.10110000   -9.337 -3.35738  5.29235
    80      1     80 0.10110000   -9.684 -1.64818  4.95869
    81      1     81 0.09610000   -7.182 -0.82241  8.96457
    82      1     82 0.09610000   -5.474 -0.47125  8.64717
    83      1     83 0.09610000   -6.693 -0.15171  7.40643

Bonds 

     1      1      2      1
     2      2      3      2
     3      3      4      3
     4      4      5      3
     5      5      6      5
     6      6      7      5
     7      7      8      7
     8      8      9      3
     9      9     10      9
    10     10     11     10
    11     11     12     10
    12     12     13     12
    13     13     14     12
    14     14     15     14
    15     15     16     10
    16     16     17     16
    17     17     18     17
    18     18     19     17
    19     19     20     19
    20     20     21     19
    21     21     22     21
    22     22     23     17
    23     23     24     23
    24     24     25     24
    25     25     26     24
    26     26     27     26
    27     27     28     26
    28     28     29     28
    29     29     30     24
    30     30     31     30
    31     31     32     31
    32     32     33     31
    33     33     34     33
    34     34     35     33
    35     35     36     35
    36     36     37     31
    37     37     38      1
    38     38     39      1
    39     39     40      1
    40     40     41      2
    41     41     42      2
    42     42     43      4
    43     43     44      4
    44     44     45      4
    45     45     46      8
    46     46     47      8
    47     47     48      8
    48     48     49      9
    49     49     50      9
    50     50     51     11
    51     51     52     11
    52     52     53     11
    53     53     54     15
    54     54     55     15
    55     55     56     15
    56     56     57     16
    57     57     58     16
    58     58     59     18
    59     59     60     18
    60     60     61     18
    61     61     62     22
    62     62     63     22
    63     63     64     22
    64     64     65     23
    65     65     66     23
    66     66     67     25
    67     67     68     25
    68     68     69     25
    69     69     70     29
    70     70     71     29
    71     71     72     29
    72     72     73     30
    73     73     74     30
    74     74     75     32
    75     75     76     32
    76     76     77     32
    77     77     78     36
    78     78     79     36
    79     79     80     36
    80     80     81     37
    81     81     82     37
    82     82     83     37

Angles 

     1      1      1      2      3
     2      2      2      3      4
     3      3      2      3      5
     4      4      3      5      6
     5      5      3      5      7
     6      6      5      7      8
     7      7      2      3      9
     8      8      3      9     10
     9      9      9     10     11
    10     10      9     10     12
    11     11     10     12     13
    12     12     10     12     14
    13     13     12     14     15
    14     14      9     10     16
    15     15     10     16     17
    16     16     16     17     18
    17     17     16     17     19
    18     18     17     19     20
    19     19     17     19     21
    20     20     19     21     22
    21     21     16     17     23
    22     22     17     23     24
    23     23     23     24     25
    24     24     23     24     26
    25     25     24     26     27
    26     26     24     26     28
    27     27     26     28     29
    28     28     23     24     30
    29     29     24     30     31
    30     30     30     31     32
    31     31     30     31     33
    32     32     31     33     34
    33     33     31     33     35
    34     34     33     35     36
    35     35     30     31     37
    36     36      2      1     38
    37     37      2      1     39
    38     38      2      1     40
    39     39      1      2     41
    40     40      1      2     42
    41     41      3      4     43
    42     42      3      4     44
    43     43      3      4     45
    44     44      7      8     46
    45     45      7      8     47
    46     46      7      8     48
    47     47      3      9     49
    48     48      3      9     50
    49     49     10     11     51
    50     50     10     11     52
    51     51     10     11     53
    52     52     14     15     54
    53     53     14     15     55
    54     54     14     15     56
    55     55     10     16     57
    56     56     10     16     58
    57     57     17     18     59
    58     58     17     18     60
    59     59     17     18     61
    60     60     21     22     62
    61     61     21     22     63
    62     62     21     22     64
    63     63     17     23     65
    64     64     17     23     66
    65     65     24     25     67
    66     66     24     25     68
    67     67     24     25     69
    68     68     28     29     70
    69     69     28     29     71
    70     70     28     29     72
    71     71     24     30     73
    72     72     24     30     74
    73     73     31     32     75
    74     74     31     32     76
    75     75     31     32     77
    76     76     35     36     78
    77     77     35     36     79
    78     78     35     36     80
    79     79     31     37     81
    80     80     31     37     82
    81     81     31     37     83
    82     82     20     19     21
    83     83     60     18     61
    84     84     13     12     14
    85     85     52     11     53
    86     86     11     10     12
    87     87     81     37     83
    88     88     47      8     48
    89     89     18     17     23
    90     90     31     30     74
    91     91     17     16     58
    92     92     25     24     26
    93     93      4      3      9
    94     94     55     15     56
    95     95     38      1     40
    96     96     75     32     77
    97     97     19     17     23
    98     98     46      8     47
    99     99     81     37     82
   100    100     17     16     57
   101    101      3      2     41
   102    102     70     29     72
   103    103     68     25     69
   104    104     34     33     35
   105    105     10      9     50
   106    106      5      3      9
   107    107     32     31     33
   108    108      6      5      7
   109    109      4      3      5
   110    110     62     22     64
   111    111     79     36     80
   112    112     12     10     16
   113    113     49      9     50
   114    114     24     23     66
   115    115     67     25     69
   116    116     70     29     71
   117    117     39      1     40
   118    118     31     30     73
   119    119     67     25     68
   120    120     11     10     16
   121    121     54     15     56
   122    122     32     31     37
   123    123     51     11     52
   124    124     59     18     60
   125    125     43      4     44
   126    126     76     32     77
   127    127     57     16     58
   128    128     75     32     76
   129    129     46      8     48
   130    130     43      4     45
   131    131     44      4     45
   132    132     25     24     30
   133    133      3      2     42
   134    134     26     24     30
   135    135     78     36     80
   136    136     33     31     37
   137    137     82     37     83
   138    138     62     22     63
   139    139     41      2     42
   140    140     27     26     28
   141    141     51     11     53
   142    142     63     22     64
   143    143     38      1     39
   144    144     71     29     72
   145    145     18     17     19
   146    146     54     15     55
   147    147     78     36     79
   148    148     10      9     49
   149    149     24     23     65
   150    150     65     23     66
   151    151     59     18     61
   152    152     73     30     74

Dihedrals

     1      1      4      3      2      1 
     2      2      6      5      3      2 
     3      3      8      7      5      3 
     4      4     10      9      3      2 
     5      5     11     10      9      3 
     6      6     13     12     10      9 
     7      7     15     14     12     10 
     8      8     17     16     10      9 
     9      9     18     17     16     10 
    10     10     20     19     17     16 
    11     11     22     21     19     17 
    12     12     24     23     17     16 
    13     13     25     24     23     17 
    14     14     27     26     24     23 
    15     15     29     28     26     24 
    16     16     31     30     24     23 
    17     17     32     31     30     24 
    18     18     34     33     31     30 
    19     19     36     35     33     31 
    20     20     38      1      2      3 
    21     21     43      4      3      2 
    22     22     46      8      7      5 
    23     23     51     11     10      9 
    24     24     54     15     14     12 
    25     25     59     18     17     16 
    26     26     62     22     21     19 
    27     27     67     25     24     23 
    28     28     70     29     28     26 
    29     29     75     32     31     30 
    30     30     78     36     35     33 
    31     31     81     37     31     30 
    32     32     50      9      3      5 
    33     33     73     30     24     25 
    34     34     60     18     17     19 
    35     35     16     10     12     14 
    36     36     65     23     17     18 
    37     37     74     30     24     25 
    38     38     42      2      1     39 
    39     39     26     24     23     17 
    40     40     69     25     24     30 
    41     41     57     16     10     11 
    42     42     74     30     31     37 
    43     43     58     16     17     19 
    44     44     68     25     24     26 
    45     45     35     33     31     30 
    46     46     17     16     10     12 
    47     47     47      8      7      5 
    48     48     19     17     16     10 
    49     49     69     25     24     23 
    50     50     80     36     35     33 
    51     51     65     23     24     26 
    52     52     61     18     17     19 
    53     53     73     30     31     32 
    54     54     52     11     10     16 
    55     55     13     12     10     11 
    56     56     57     16     10     12 
    57     57     58     16     10     11 
    58     58     45      4      3      5 
    59     59     68     25     24     30 
    60     60     44      4      3      2 
    61     61     28     26     24     25 
    62     62     22     21     19     20 
    63     63     28     26     24     23 
    64     64     41      2      1     38 
    65     65     49      9      3      2 
    66     66     30     24     23     17 
    67     67     53     11     10     12 
    68     68     51     11     10     12 
    69     69     69     25     24     26 
    70     70     67     25     24     30 
    71     71     33     31     30     24 
    72     72     53     11     10      9 
    73     73     10      9      3      5 
    74     74     61     18     17     23 
    75     75     74     30     24     23 
    76     76     66     23     24     26 
    77     77     83     37     31     33 
    78     78     57     16     10      9 
    79     79     37     31     30     24 
    80     80     83     37     31     30 
    81     81     76     32     31     37 
    82     82     51     11     10     16 
    83     83     74     30     24     26 
    84     84     24     23     17     19 
    85     85     49      9     10     11 
    86     86      9      3      2      1 
    87     87     43      4      3      5 
    88     88      6      5      3      4 
    89     89     41      2      1     40 
    90     90     31     30     24     25 
    91     91     39      1      2      3 
    92     92     30     24     26     27 
    93     93     75     32     31     37 
    94     94     16     10      9      3 
    95     95     64     22     21     19 
    96     96     61     18     17     16 
    97     97     82     37     31     30 
    98     98     52     11     10     12 
    99     99     34     33     31     32 
   100    100     66     23     17     16 
   101    101     50      9     10     16 
   102    102     77     32     31     37 
   103    103     21     19     17     16 
   104    104     48      8      7      5 
   105    105     65     23     24     25 
   106    106     42      2      3      9 
   107    107     21     19     17     18 
   108    108      7      5      3      4 
   109    109     82     37     31     33 
   110    110     43      4      3      9 
   111    111     17     16     10     11 
   112    112     42      2      3      5 
   113    113     59     18     17     19 
   114    114     29     28     26     27 
   115    115     10      9      3      4 
   116    116     73     30     31     33 
   117    117     42      2      1     38 
   118    118     56     15     14     12 
   119    119     37     31     33     35 
   120    120     60     18     17     23 
   121    121     66     23     17     19 
   122    122     50      9     10     12 
   123    123     55     15     14     12 
   124    124     12     10      9      3 
   125    125     37     31     33     34 
   126    126     60     18     17     16 
   127    127     41      2      3      4 
   128    128     57     16     17     23 
   129    129     31     30     24     26 
   130    130     71     29     28     26 
   131    131     35     33     31     32 
   132    132     79     36     35     33 
   133    133     73     30     24     23 
   134    134     49      9      3      4 
   135    135     66     23     17     18 
   136    136      9      3      5      6 
   137    137     65     23     17     19 
   138    138     45      4      3      9 
   139    139     59     18     17     23 
   140    140     50      9     10     11 
   141    141     49      9     10     12 
   142    142      7      5      3      2 
   143    143     75     32     31     33 
   144    144     65     23     24     30 
   145    145     58     16     10      9 
   146    146     66     23     24     25 
   147    147     14     12     10      9 
   148    148     82     37     31     32 
   149    149     81     37     31     33 
   150    150     16     10     12     13 
   151    151      9      3      5      7 
   152    152     68     25     24     23 
   153    153     41      2      1     39 
   154    154     30     24     26     28 
   155    155     23     17     19     21 
   156    156     27     26     24     25 
   157    157     45      4      3      2 
   158    158     77     32     31     33 
   159    159     63     22     21     19 
   160    160     23     17     19     20 
   161    161     44      4      3      9 
   162    162      5      3      2      1 
   163    163     58     16     10     12 
   164    164     73     30     31     37 
   165    165     83     37     31     32 
   166    166     49      9      3      5 
   167    167     50      9      3      4 
   168    168     77     32     31     30 
   169    169     36     35     33     34 
   170    170     41      2      3      9 
   171    171      8      7      5      6 
   172    172     72     29     28     26 
   173    173     58     16     17     23 
   174    174     40      1      2      3 
   175    175     81     37     31     32 
   176    176     52     11     10      9 
   177    177     65     23     17     16 
   178    178     53     11     10     16 
   179    179     14     12     10     11 
   180    180     67     25     24     26 
   181    181     66     23     24     30 
   182    182     24     23     17     18 
   183    183     57     16     17     18 
   184    184     76     32     31     33 
   185    185     76     32     31     30 
   186    186     50      9      3      2 
   187    187     42      2      3      4 
   188    188     41      2      3      5 
   189    189     74     30     31     32 
   190    190     58     16     17     18 
   191    191     42      2      1     40 
   192    192     57     16     17     19 
   193    193     20     19     17     18 
   194    194     44      4      3      5 
   195    195     74     30     31     33 
   196    196     23     17     16     10 
   197    197     15     14     12     13 
   198    198     73     30     24     26 
   199    199     49      9     10     16 

Impropers

     1      1      3      2      4      5 
     2      2      5      3      6      7 
     3      3      3      9      2      4 
     4      4     10      9     11     12 
     5      5     12     10     13     14 
     6      6     10      9     11     16 
     7      7     17     18     19     16 
     8      8     19     17     20     21 
     9      9     17     18     23     16 
    10     10     24     25     26     23 
    11     11     26     27     28     24 
    12     12     24     25     30     23 
    13     13     31     33     30     32 
    14     14     33     34     35     31 
    15     15     31     37     30     32 
    16     16      1      2     38     39 
    17     17      1      2     38     40 
    18     18      2     41      3      1 
    19     19      2      1     42      3 
    20     20      4      3     44     43 
    21     21      4      3     45     43 
    22     22      8     46      7     47 
    23     23      8     46      7     48 
    24     24      9     49      3     10 
    25     25      9     50      3     10 
    26     26     11     10     52     51 
    27     27     11     10     53     51 
    28     28     15     54     55     14 
    29     29     15     54     14     56 
    30     30     16     57     10     17 
    31     31     16     17     58     10 
    32     32     18     17     59     60 
    33     33     18     17     59     61 
    34     34     22     21     63     62 
    35     35     22     62     21     64 
    36     36     23     65     17     24 
    37     37     23     17     66     24 
    38     38     25     67     68     24 
    39     39     25     67     69     24 
    40     40     29     28     70     71 
    41     41     29     28     70     72 
    42     42     30     73     31     24 
    43     43     30     74     31     24 
    44     44     32     75     76     31 
    45     45     32     75     77     31 
    46     46     36     35     78     79 
    47     47     36     35     78     80 
    48     48     37     81     82     31 
    49     49     37     81     83     31 

