38
SMILES: CCC(C)(C(=O)OC)CC(C)(C(=O)OC)CC(C)(C(=O)OC)CC(C)(C(=O)OC)CC(C)(C(=O)OC)C
C     -6.4589380000    0.2094310000   -0.4730120000
C     -5.5166560000    0.8765130000    0.5236150000
C     -4.1218880000    1.2963780000   -0.0228640000
C     -4.3743860000    2.3811980000   -1.1180540000
C     -3.3378660000    2.0111970000    1.0906020000
O     -2.8347040000    3.1221280000    0.9761330000
O     -3.2981230000    1.2702530000    2.2292450000
C     -2.6087930000    1.8800890000    3.3244010000
C     -3.2880800000    0.1745490000   -0.7278710000
C     -2.7318800000   -1.1278100000   -0.0469050000
C     -3.6988760000   -1.7198450000    1.0018010000
C     -2.6443390000   -2.2547330000   -1.1135390000
O     -3.1708610000   -2.2196230000   -2.2178050000
O     -1.9348830000   -3.3254770000   -0.6512080000
C     -1.8492450000   -4.4168530000   -1.5695300000
C     -1.7817273030   -0.9962739447    0.4272343452
H     -5.4214420000    0.2221710000    1.3936420000
H     -4.9690700000    3.2140640000   -0.7234520000
H     -3.4317400000    2.8051170000   -1.4853770000
H     -4.8982510000    1.9723230000   -1.9884330000
H     -2.3203080000    1.0884840000    4.0230330000
H     -1.6984090000    2.3984010000    3.0065860000
H     -3.2854900000    2.5714950000    3.8363450000
H     -2.4385840000    0.6681730000   -1.2100270000
H     -3.9090530000   -0.1360810000   -1.5775950000
H     -3.3473520000   -2.6926650000    1.3683570000
H     -3.7924330000   -1.0891080000    1.8866220000
H     -4.6912980000   -1.8994320000    0.5777710000
H     -1.3831830000   -4.0977210000   -2.5069960000
H     -2.8417820000   -4.8405830000   -1.7511260000
H     -1.2202230000   -5.1883310000   -1.1177920000
H     -6.0354110000   -0.7111780000   -0.8815880000
H     -6.0231810000    1.7707500000    0.9153960000
H     -6.7100530000    0.8720720000   -1.3046130000
H     -7.3980770000   -0.0519770000    0.0254250000
H     -1.8528798699   -0.2189338539    1.1590675281
H     -1.4914700774   -1.9092787929    0.9037561204
H     -1.0506792183   -0.7290731255   -0.3069812447
