5395
Generated from LAMMPS data
C     11.884970    10.392242    57.327777 -0.239000
C     11.455742     8.981648    57.793733 -0.167600
C     10.875305     7.926148    56.768133 -0.029300
C     10.554437     6.674679    57.605293 -0.237800
C     12.076782     7.548845    55.812785  0.439900
O     12.211631     7.955051    54.667974 -0.448400
O     12.927360     6.711476    56.439546 -0.358300
C     -0.050374     6.221533    55.852175 -0.065100
C      9.654899     8.616157    55.985434 -0.165100
C      8.472985     7.739608    55.386342 -0.009900
C      8.994800     6.728488    54.355383 -0.246800
C      7.838091     6.879943    56.506781  0.432100
O      7.758173     5.654230    56.365661 -0.452200
O      7.404289     7.593949    57.580826 -0.355800
C      6.643393     6.921300    58.534158 -0.056200
C      7.363207     8.607827    54.760589 -0.171000
C      7.282565     9.162640    53.294173 -0.031000
C      8.610124     9.909049    52.953541 -0.244000
C      7.026087     8.168252    52.142099  0.435200
O      6.612759     7.015493    52.331741 -0.458900
O      7.256653     8.626734    50.901616 -0.347000
C      7.122817     7.695589    49.779149 -0.066900
C      6.215030    10.330404    53.169236 -0.170400
C      4.662448    10.062300    53.604215 -0.028400
C      4.080414     8.692447    53.184672 -0.243800
C      4.507372    10.118476    55.193354  0.439600
O      3.632304     9.451397    55.714396 -0.450700
O      5.257117    11.028434    55.800248 -0.354600
C      5.242777    11.196187    57.187170 -0.055900
C      3.688180    11.136486    53.071103 -0.159600
C      3.583607    11.411599    51.539845 -0.035600
C      2.074094    11.616172    51.252761 -0.229900
C      4.300053    12.794642    51.235849  0.436800
O      3.747472    -0.286699    51.340791 -0.452100
O      5.566645    12.621601    50.890366 -0.352200
C      6.332925    -0.438647    50.395349 -0.056800
C      4.085724    10.440707    50.499630 -0.236300
H     12.593466    10.856258    58.060897  0.087100
H     12.348050    10.282985    56.422091  0.087100
H     11.096008    11.108209    57.202807  0.087100
H     12.387244     8.495410    58.140721  0.098700
H     10.856958     9.001271    58.676502  0.098700
H      9.731894     6.843069    58.273929  0.097400
H     11.428041     6.269031    58.097932  0.097400
H     10.225280     5.866572    57.036273  0.097400
H     -0.239201     5.421111    55.104764  0.107100
H      0.442158     7.121981    55.363564  0.107100
H      0.612317     5.810726    56.620630  0.107100
H     10.019791     9.227667    55.212235  0.120800
H      9.038569     9.284046    56.595826  0.120800
H      9.743021     6.086712    54.853644  0.102900
H      9.485772     7.209742    53.520757  0.102900
H      8.269788     6.074585    53.851226  0.102900
H      7.128974     5.986755    58.788646  0.101900
H      6.397499     7.503249    59.426165  0.101900
H      5.714050     6.613163    58.141414  0.101900
H      6.507617     7.963073    54.835510  0.119600
H      7.122633     9.347918    55.412556  0.119600
H      8.851984    10.768458    53.557252  0.105000
H      8.485212    10.352955    51.984041  0.105000
H      9.460534     9.171590    52.781592  0.105000
H      7.461036     8.143079    48.855216  0.108600
H      6.049136     7.408557    49.634137  0.108600
H      7.696082     6.781781    50.093584  0.108600
H      6.659935    11.218700    53.753401  0.119000
H      6.308446    10.720966    52.147289  0.119000
H      4.525999     7.988273    53.885659  0.102400
H      3.012594     8.575879    53.290513  0.102400
H      4.345974     8.492106    52.177835  0.102400
H      4.876334    10.398957    57.775611  0.101200
H      4.604821    12.058089    57.416329  0.101200
H      6.228276    11.359508    57.516687  0.101200
H      3.837983    12.081052    53.643091  0.122000
H      2.748342    10.831020    53.534401  0.122000
H      1.955735    11.768057    50.145759  0.099800
H      1.384081    10.891558    51.602369  0.099800
H      1.719322    12.584780    51.661469  0.099800
H      6.108635     0.403759    51.085331  0.101100
H      6.125208    -0.181859    49.367919  0.101100
H      7.383240    13.481289    50.407839  0.101100
H      3.567029     9.458074    50.401808  0.096100
H      5.090926    10.275638    50.514838  0.096100
H      3.991384    10.911703    49.533270  0.096100
C     12.827662     9.212535    62.832415 -0.239000
C     11.820132     8.865761    63.952665 -0.167600
C     11.478152    10.021051    64.915292 -0.029300
C     12.858425    10.385181    65.650849 -0.237800
C     10.974846    11.089019    64.006945  0.439900
O      9.906178    11.016570    63.439091 -0.448400
O     11.783357    12.157607    63.868121 -0.358300
C     11.261785    13.361766    63.264342 -0.065100
C     10.407299     9.541293    65.973215 -0.165100
C      9.604598    10.550983    66.844221 -0.009900
C      9.307358     9.769863    68.158151 -0.246800
C     10.371861    11.818261    67.330288  0.432100
O     11.082114    11.753765    68.319642 -0.452200
O     10.225960    12.860772    66.486634 -0.355800
C     10.810115    -0.083705    66.749187 -0.056200
C      8.265272    10.782266    66.060048 -0.171000
C      6.956868    11.363324    66.736389 -0.031000
C      6.438258    10.428947    67.883349 -0.244000
C      7.233882    12.778678    67.291222  0.435200
O      7.151600    -0.482028    66.491093 -0.458900
O      7.772416    12.790549    68.622159 -0.347000
C      8.121283    -0.221307    69.240524 -0.066900
C      5.907157    11.552149    65.494874 -0.170400
C      4.974472    10.435639    64.847380 -0.028400
C      5.680287     9.044529    64.718008 -0.243800
C      3.734170    10.290158    65.689207  0.439600
O      2.970048     9.309580    65.497832 -0.450700
O      3.448532    11.181898    66.634823 -0.354600
C      2.280489    11.225032    67.411568 -0.055900
C      4.646338    10.794288    63.423311 -0.159600
C      4.130932    12.234180    62.874833 -0.035600
C      2.980001    12.773901    63.757420 -0.229900
C      3.735646    12.085740    61.403842  0.436800
O      4.553427    11.680780    60.562164 -0.452100
O      2.646784    12.745258    61.123716 -0.352200
C      2.146935    12.768328    59.820361 -0.056800
C      5.187841    13.292855    62.858308 -0.236300
H     -0.477602     9.763507    63.214776  0.087100
H     13.201410     8.246651    62.398630  0.087100
H     12.345881     9.783050    62.043036  0.087100
H     12.230071     8.139947    64.567185  0.098700
H     11.011620     8.329966    63.458693  0.098700
H     13.560207    11.005397    65.025807  0.097400
H     13.365132     9.546861    66.095745  0.097400
H     12.687326    11.192881    66.440522  0.097400
H     10.418702    -0.502811    63.840276  0.107100
H     12.016890    -0.014565    63.218017  0.107100
H     11.001506    13.228208    62.227655  0.107100
H      9.750959     8.797073    65.492627  0.120800
H     11.000811     8.967653    66.670195  0.120800
H     10.313446     9.501288    68.595951  0.102900
H      9.002359    10.439802    69.011118  0.102900
H      8.708233     8.914114    68.013981  0.102900
H     11.604352    -0.246765    67.552650  0.101900
H     10.045851     0.539324    67.212638  0.101900
H     11.127430     0.339873    65.815076  0.101900
H      8.481437    11.397381    65.211987  0.119600
H      7.932998     9.856599    65.542337  0.119600
H      5.384358    10.593241    68.040147  0.105000
H      6.626296     9.379546    67.663601  0.105000
H      6.952718    10.787262    68.798905  0.105000
H      7.773423     0.697847    68.745278  0.108600
H      7.596724    -0.362482    70.146474  0.108600
H      9.134731    -0.074275    69.553476  0.108600
H      6.510821    12.044934    64.766050  0.119000
H      5.204001    12.296843    65.815677  0.119000
H      5.895983     8.621572    65.669192  0.102400
H      6.555602     9.197287    64.088510  0.102400
H      5.045131     8.270576    64.224134  0.102400
H      1.454626    10.735522    66.892954  0.101200
H      2.023465    12.247792    67.666696  0.101200
H      2.494503    10.663439    68.312124  0.101200
H      3.984229    10.063010    62.958842  0.122000
H      5.543711    10.745791    62.742773  0.122000
H      3.370588    13.209926    64.666149  0.099800
H      2.434278    13.570527    63.263635  0.099800
H      2.305479    11.916265    64.008893  0.099800
H      1.377064    13.557457    59.874472  0.101100
H      2.887958    13.114992    59.132379  0.101100
H      1.897562    11.746344    59.482869  0.101100
H      6.215244    12.951915    62.593570  0.096100
H      4.837583    -0.081945    62.180962  0.096100
H      5.379109    -0.471620    63.820752  0.096100
C     13.318342     3.621619   249.568969 -0.239000
C     13.418071     3.764071   248.036225 -0.167600
C     12.169970     3.486902   247.209678 -0.029300
C     11.820404     1.937765   247.428627 -0.237800
C     11.003661     4.338676   247.582890  0.439900
O     11.211679     5.398782   248.227710 -0.448400
O      9.822857     3.742960   247.414049 -0.358300
C      8.737585     4.036449   248.299630 -0.065100
C     12.412364     3.726868   245.637289 -0.165100
C     13.239170     4.949010   245.007774 -0.009900
C     12.786602     6.265617   245.572181 -0.246800
C      0.573244     4.805955   245.334382  0.432100
O      1.100038     3.746473   245.705005 -0.452200
O      1.196189     5.860449   245.032637 -0.355800
C      2.608745     5.865124   245.098466 -0.056200
C     13.157973     4.987705   243.419342 -0.171000
C     13.271756     3.719191   242.487052 -0.031000
C      0.387960     2.995039   242.769868 -0.244000
C     11.953357     2.857597   242.699050  0.435200
O     10.880239     3.439567   242.713531 -0.458900
O     12.046689     1.549716   242.523920 -0.347000
C     10.838017     0.924421   242.070265 -0.066900
C     13.013158     4.081856   240.952342 -0.170400
C     -0.033725     4.738953   240.029169 -0.028400
C      0.817585     5.773041   240.793373 -0.243800
C      0.949319     3.668413   239.485866  0.439600
O      2.030441     3.986266   238.995112 -0.450700
O      0.513257     2.449761   239.540425 -0.354600
C      1.382782     1.412494   239.232971 -0.055900
C     13.485716     5.493520   238.726899 -0.159600
C     12.427398     4.912498   237.744845 -0.035600
C     12.042748     5.982617   236.686365 -0.229900
C     11.184248     4.611142   238.542649  0.436800
O     10.623245     5.368352   239.276562 -0.452100
O     10.794299     3.419237   238.281170 -0.352200
C      9.665591     2.880893   238.978463 -0.056800
C     13.056335     3.621533   237.051217 -0.236300
H     12.884179     2.728686   249.958922  0.087100
H      0.083534     3.633415   249.990326  0.087100
H     12.878504     4.491847   249.922229  0.087100
H     -0.490771     4.827639   247.994932  0.098700
H      0.091803     3.169517   247.729252  0.098700
H     11.009480     1.604693   246.807292  0.097400
H     12.697566     1.342153   247.323220  0.097400
H     11.391557     1.718756   248.450532  0.097400
H      8.241821     5.016475   248.130262  0.107100
H      8.921677     4.039785   249.380418  0.107100
H      7.923706     3.305471   248.201963  0.107100
H     11.432173     3.652229   245.176854  0.120800
H     13.047408     2.875477   245.269674  0.120800
H     13.175490     7.161883   245.043096  0.102900
H     11.696503     6.367390   245.509237  0.102900
H     13.033121     6.395832   246.572011  0.102900
H      2.831262     6.176496   246.066530  0.101900
H      3.215091     4.943778   244.892995  0.101900
H      2.981216     6.642099   244.382016  0.101900
H     12.296050     5.501446   243.150320  0.119600
H     -0.279927     5.750570   243.143596  0.119600
H      0.260743     2.256865   243.532391  0.105000
H      0.745192     2.365091   241.976677  0.105000
H      1.205793     3.709744   243.046813  0.105000
H     10.532988     1.324947   241.113351  0.108600
H     10.032396     0.896593   242.814575  0.108600
H     11.133228    -0.083027   241.861396  0.108600
H     12.268392     4.769575   240.990613  0.119000
H     12.578981     3.166668   240.390935  0.119000
H      1.510638     6.311926   240.067379  0.102400
H      0.156766     6.555247   241.196402  0.102400
H      1.443904     5.335078   241.588822  0.102400
H      0.898266     0.377703   239.231901  0.101200
H      2.195244     1.464036   239.990574  0.101200
H      1.828915     1.583986   238.266088  0.101200
H      0.197881     5.919319   238.224759  0.122000
H     13.012003     6.307316   239.156698  0.122000
H     11.227685     5.742999   236.054859  0.099800
H     12.788016     6.270958   236.091144  0.099800
H     11.787577     6.936325   237.229095  0.099800
H      8.772216     3.150398   238.456604  0.101100
H      9.742975     1.780164   239.037596  0.101100
H      9.547864     3.278165   239.963199  0.101100
H     12.481195     3.392275   236.119492  0.096100
H     -0.034021     3.612922   236.894980  0.096100
H     12.943361     2.688416   237.587528  0.096100
C      7.546183     6.069090   245.399930 -0.239000
C      6.496404     4.977498   245.135437 -0.167600
C      6.927662     3.739083   244.232542 -0.029300
C      8.213800     3.009138   244.704255 -0.237800
C      5.795485     2.670384   244.295909  0.439900
O      5.922359     1.641244   243.639240 -0.448400
O      4.749934     2.896733   245.181205 -0.358300
C      3.741064     1.849592   245.303899 -0.065100
C      7.221112     4.321494   242.840058 -0.165100
C      6.260342     5.080532   241.798069 -0.009900
C      4.944762     4.222794   241.625157 -0.246800
C      5.889716     6.507352   242.344348  0.432100
O      4.819645     6.829863   242.842106 -0.452200
O      6.909668     7.410560   242.325547 -0.355800
C      6.813145     8.784023   242.845245 -0.056200
C      6.947211     5.049107   240.400537 -0.171000
C      6.663681     6.015105   239.140341 -0.031000
C      7.608395     7.227306   239.305436 -0.244000
C      7.110843     5.091752   237.944533  0.435200
O      6.472405     4.150040   237.592333 -0.458900
O      8.175472     5.598638   237.171172 -0.347000
C      8.402882     5.068538   235.879421 -0.066900
C      5.162590     6.504432   238.952694 -0.170400
C      4.846536     7.510086   237.791542 -0.028400
C      5.230272     6.956949   236.382648 -0.243800
C      5.538620     8.830739   237.927258  0.439600
O      6.513994     9.229180   237.288555 -0.450700
O      4.966742     9.459697   238.959893 -0.354600
C      5.476436    10.771806   239.267908 -0.055900
C      3.317972     7.832320   237.791484 -0.159600
C      2.539932     8.647675   236.649733 -0.035600
C      3.241925     9.878373   236.076329 -0.229900
C      1.180482     9.103467   237.261926  0.436800
O      0.484046     8.336309   237.854164 -0.452100
O      0.973369    10.489583   237.210901 -0.352200
C     -0.164319    11.071505   237.779973 -0.056800
C      2.052109     7.684410   235.595933 -0.236300
H      7.326306     6.700320   246.292811  0.087100
H      7.509672     6.731216   244.532242  0.087100
H      8.564222     5.638587   245.561893  0.087100
H      5.593332     5.351587   244.818191  0.098700
H      6.299724     4.458635   246.101651  0.098700
H      8.049785     2.411150   245.529808  0.097400
H      8.493968     2.214716   243.944140  0.097400
H      9.108957     3.642058   244.955555  0.097400
H      4.250365     0.892772   245.205418  0.107100
H      3.119970     1.762286   244.437261  0.107100
H      3.112608     1.893824   246.139071  0.107100
H      8.200328     4.770317   242.889336  0.120800
H      7.392618     3.341496   242.335213  0.120800
H      4.245665     4.609670   240.967404  0.102900
H      4.598710     4.129831   242.675652  0.102900
H      5.144119     3.225595   241.250312  0.102900
H      5.791903     9.203609   242.925231  0.101900
H      7.302118     9.381554   241.982582  0.101900
H      7.409013     9.065455   243.697852  0.101900
H      8.027643     5.081046   240.476514  0.119600
H      6.851296     3.933912   240.133824  0.119600
H      8.530587     6.877931   239.834747  0.105000
H      7.924957     7.688214   238.420265  0.105000
H      7.176694     7.974023   239.866304  0.105000
H      9.191387     4.241130   235.843084  0.108600
H      8.718487     5.981947   235.253016  0.108600
H      7.506345     4.553152   235.462589  0.108600
H      4.582608     5.574866   238.830711  0.119000
H      4.798218     6.825268   239.943917  0.119000
H      6.320548     6.834361   236.175657  0.102400
H      4.988530     7.645967   235.527541  0.102400
H      4.779166     5.991760   236.047408  0.102400
H      4.942256    11.115484   240.109283  0.101200
H      5.363908    11.398518   238.404328  0.101200
H      6.583777    10.644029   239.435047  0.101200
H      3.096223     8.264174   238.772590  0.122000
H      2.868330     6.871022   238.056810  0.122000
H      2.684493    10.375580   235.304615  0.099800
H      3.402362    10.508278   236.964633  0.099800
H      4.211026     9.640956   235.621145  0.099800
H     -0.096172    12.182893   237.856512  0.101100
H     13.080068    10.728272   237.303664  0.101100
H     -0.186690    10.834758   238.854701  0.101100
H      1.772283     6.734197   235.985701  0.096100
H      1.262939     8.089576   234.945800  0.096100
H      2.865773     7.360560   234.960776  0.096100
C     10.113422     8.622930    72.124749 -0.239000
C      9.407853     9.215695    73.383658 -0.167600
C     10.011946    10.540453    74.055020 -0.029300
C     11.519985    10.275289    74.388295 -0.237800
C      9.940068    11.631992    72.964107  0.439900
O      8.818360    11.928098    72.469214 -0.448400
O     11.164340    12.154481    72.452787 -0.358300
C     11.107853    13.185102    71.418227 -0.065100
C      9.066846    10.755367    75.246488 -0.165100
C      9.165993    12.060052    76.229412 -0.009900
C      8.265162    13.083104    75.674317 -0.246800
C     10.603732    12.655805    76.207384  0.432100
O     10.909298    -0.500094    75.642671 -0.452200
O     11.436150    12.054713    77.087359 -0.355800
C     12.686139    12.655103    77.436503 -0.056200
C      8.684733    11.648348    77.704082 -0.171000
C      8.260616    12.679856    78.765829 -0.031000
C      9.330836    -0.442813    78.889551 -0.244000
C      6.922982    13.284845    78.371346  0.435200
O      6.036488    12.624815    77.773024 -0.458900
O      6.873772     0.439578    78.494488 -0.347000
C      5.692361     1.081123    78.116327 -0.066900
C      8.070087    11.948672    80.157139 -0.170400
C      7.132529    12.375414    81.408627 -0.028400
C      7.274079    -0.325071    81.692918 -0.243800
C      5.622742    12.173827    80.988358  0.439600
O      4.703689    12.924739    81.265314 -0.450700
O      5.477970    11.143601    80.176893 -0.354600
C      4.227809    10.926404    79.579266 -0.055900
C      7.580870    11.516437    82.642572 -0.159600
C      7.285493    11.943516    84.169221 -0.035600
C      5.797350    12.146588    84.305048 -0.229900
C      8.234619    13.073952    84.634311  0.436800
O      9.415375    12.961257    84.551471 -0.452100
O      7.571430    -0.015053    85.013368 -0.352200
C      8.338036     1.152413    85.554155 -0.056800
C      7.574472    10.729364    85.121688 -0.236300
H      9.481399     7.936379    71.556567  0.087100
H     10.367070     9.429026    71.442954  0.087100
H     11.025807     8.091360    72.384985  0.087100
H      9.296332     8.360200    74.056614  0.098700
H      8.415955     9.471366    73.000492  0.098700
H     11.575337     9.457652    75.098235  0.097400
H     12.187905    10.041166    73.560989  0.097400
H     12.065280    11.050847    74.895661  0.097400
H     10.805503    12.794733    70.489334  0.107100
H     12.041737    13.575784    71.228099  0.107100
H     10.593231    -0.133579    71.653302  0.107100
H      9.374931     9.849302    75.833369  0.120800
H      8.023988    10.646832    74.951562  0.120800
H      8.291048    -0.113248    76.122203  0.102900
H      7.256119    12.691784    75.530178  0.102900
H      8.569441    13.330055    74.641184  0.102900
H     13.388263    12.054536    78.096567  0.101900
H     13.256691    12.869169    76.562340  0.101900
H     12.513803    -0.538841    77.877474  0.101900
H      9.498743    11.032993    78.133727  0.119600
H      7.864141    10.950910    77.639598  0.119600
H     10.331663    13.434410    79.168060  0.105000
H      8.964742     0.293981    79.604888  0.105000
H      9.535079     0.110808    77.962855  0.105000
H      5.344746     0.872248    77.092534  0.108600
H      4.983943     0.797711    78.891949  0.108600
H      5.701206     2.127920    78.203091  0.108600
H      7.727383    10.907571    79.910161  0.119000
H      9.101792    11.729142    80.456806  0.119000
H      8.343486    -0.134911    81.930065  0.102400
H      6.814907    -0.020146    82.580858  0.102400
H      6.955082     0.389236    80.887765  0.102400
H      3.736689    11.753254    79.003378  0.101200
H      4.318008    10.111635    78.841630  0.101200
H      3.436152    10.614209    80.261862  0.101200
H      7.104000    10.466895    82.502033  0.122000
H      8.690830    11.444648    82.590146  0.122000
H      5.155434    11.371327    83.821618  0.099800
H      5.442083    12.033630    85.320888  0.099800
H      5.543221    13.158626    83.959942  0.099800
H      9.360429     1.248588    85.169779  0.101100
H      7.920340     2.099878    85.211187  0.101100
H      8.413937     1.109653    86.645816  0.101100
H      7.373894    10.896690    86.183828  0.096100
H      8.586254    10.503857    85.178766  0.096100
H      7.107675     9.831491    84.695727  0.096100
C      4.283363     7.404094    73.517466 -0.239000
C      5.376069     8.461162    73.137142 -0.167600
C      4.904479     9.619770    72.116668 -0.029300
C      6.082347    10.323113    71.594775 -0.237800
C      4.130326     8.899906    70.963454  0.439900
O      2.899282     8.766721    70.937537 -0.448400
O      4.929527     8.428833    70.034352 -0.358300
C      4.416251     7.978998    68.831173 -0.065100
C      3.936725    10.641651    72.803824 -0.165100
C      3.535179    12.069212    72.229238 -0.009900
C      3.159860    11.926837    70.785287 -0.246800
C      2.252435    12.544865    73.026802  0.432100
O      2.061293    12.252235    74.196285 -0.452200
O      1.509100    13.425520    72.262680 -0.355800
C      0.443361    -0.188967    72.970439 -0.056200
C      4.783155    13.025006    72.358850 -0.171000
C      4.832556     0.364782    72.523782 -0.031000
C      4.254825     1.016193    71.204654 -0.244000
C      3.973758     0.888650    73.701921  0.435200
O      4.310009     0.522527    74.821852 -0.458900
O      3.258367     2.022446    73.446778 -0.347000
C      2.635093     2.700105    74.551922 -0.066900
C      6.314527     0.774123    72.728408 -0.170400
C      6.975878     2.129962    72.910409 -0.028400
C      8.445545     1.929123    73.109974 -0.243800
C      6.874878     2.933298    71.613390  0.439600
O      7.362737     2.502520    70.573324 -0.450700
O      6.337652     4.190786    71.726316 -0.354600
C      6.445877     5.181893    70.658209 -0.055900
C      6.416158     2.896812    74.112523 -0.159600
C      7.202574     4.033193    74.841573 -0.035600
C      7.567981     5.222375    73.882280 -0.229900
C      8.364497     3.341107    75.609866  0.436800
O      8.169631     2.422302    76.393743 -0.452100
O      9.624614     3.859362    75.394948 -0.352200
C     10.744369     3.108838    75.910868 -0.056800
C      6.278517     4.708524    75.833924 -0.236300
H      3.224772     7.781458    73.749481  0.087100
H      4.168035     6.885626    72.633579  0.087100
H      4.538567     6.601016    74.232408  0.087100
H      5.839470     8.971870    73.982489  0.098700
H      6.155049     7.879233    72.582699  0.098700
H      6.840775     9.594104    71.365508  0.097400
H      6.578105    10.912145    72.356165  0.097400
H      5.912546    10.924047    70.703902  0.097400
H      3.751361     7.149039    69.179331  0.107100
H      5.127928     7.446258    68.207829  0.107100
H      4.017567     8.838770    68.227115  0.107100
H      2.959280    10.128151    72.932015  0.120800
H      4.212724    10.866241    73.887311  0.120800
H      2.879812    12.808025    70.297398  0.102900
H      3.938140    11.489561    70.177360  0.102900
H      2.300253    11.222948    70.704106  0.102900
H      0.756971     0.620805    73.633373  0.101900
H     -0.114498    13.258439    73.549049  0.101900
H     -0.279057     0.092564    72.211158  0.101900
H      5.422968    12.917090    71.479527  0.119600
H      5.424151    12.646255    73.269600  0.119600
H      4.681348     0.643713    70.342198  0.105000
H      3.250109     0.785971    71.073403  0.105000
H      4.215624     2.136423    71.236583  0.105000
H      2.972733     3.741680    74.384093  0.108600
H      2.883175     2.358703    75.558246  0.108600
H      1.530386     2.600170    74.495315  0.108600
H      6.623057     0.192214    73.643496  0.119000
H      6.982731     0.204867    72.083724  0.119000
H      8.728358     1.347697    72.280752  0.102400
H      8.646907     1.301415    74.022464  0.102400
H      8.951388     2.890505    73.038087  0.102400
H      5.632652     4.848048    69.990109  0.101200
H      6.182798     6.103972    71.081755  0.101200
H      7.408990     5.330966    70.137635  0.101200
H      5.487453     3.311510    73.825408  0.122000
H      6.222234     2.126704    74.854047  0.122000
H      8.264959     5.903142    74.453540  0.099800
H      6.744166     5.755310    73.552209  0.099800
H      8.223157     4.853062    73.106155  0.099800
H     10.843299     2.109473    75.641178  0.101100
H     10.799712     3.250395    76.992331  0.101100
H     11.704581     3.504049    75.638873  0.101100
H      5.400374     5.141612    75.384488  0.096100
H      5.914711     3.904425    76.556774  0.096100
H      6.827684     5.481150    76.386459  0.096100
C     13.019660     2.357938    92.257839 -0.239000
C     -0.113675     3.120408    91.438239 -0.167600
C      0.030484     4.599311    91.807019 -0.029300
C      0.346794     4.778704    93.353597 -0.237800
C      1.363667     5.184056    91.234729  0.439900
O      1.593163     6.339010    91.532089 -0.448400
O      2.126111     4.384057    90.493573 -0.358300
C      3.298931     4.949481    89.943038 -0.065100
C     12.953370     5.495512    91.412334 -0.165100
C     12.826466     6.086518    89.965468 -0.009900
C     13.147750     4.920602    88.999834 -0.246800
C     -0.315396     7.241251    89.622910  0.432100
O      0.378623     7.272315    88.621540 -0.452200
O     -0.419724     8.214794    90.543571 -0.355800
C      0.269423     9.443857    90.364408 -0.056200
C     11.408348     6.677654    89.865263 -0.171000
C     10.692587     7.154602    88.530831 -0.031000
C     11.613529     8.183055    87.764823 -0.244000
C     10.508095     5.970044    87.590224  0.435200
O     10.310561     6.096517    86.404097 -0.458900
O     10.297886     4.802397    88.256510 -0.347000
C     10.217443     3.563969    87.548765 -0.066900
C      9.165116     7.614705    88.739812 -0.170400
C      8.754583     8.765235    89.736894 -0.028400
C      8.553619     8.363494    91.214676 -0.243800
C      9.715705     9.923688    89.538717  0.439600
O     10.479357    10.321900    90.412840 -0.450700
O      9.649108    10.479070    88.308500 -0.354600
C     10.682517    11.393196    87.838110 -0.055900
C      7.339432     9.367885    89.300027 -0.159600
C      5.974525     8.680380    89.495400 -0.035600
C      5.943129     7.185557    89.101865 -0.229900
C      5.054028     9.573938    88.611544  0.436800
O      4.682462    10.650539    88.975655 -0.452100
O      4.646558     9.091617    87.382438 -0.352200
C      3.461152     9.590811    86.749395 -0.056800
C      5.355460     8.700007    90.874763 -0.236300
H     12.038801     2.848411    92.236579  0.087100
H     13.293916     2.431773    93.283487  0.087100
H     12.864895     1.296967    91.928901  0.087100
H      0.825277     2.641269    91.627612  0.098700
H     -0.320011     2.882692    90.376211  0.098700
H      1.089752     3.999264    93.608556  0.097400
H     -0.568438     4.710407    93.893301  0.097400
H      0.678208     5.736860    93.708945  0.097400
H      4.052617     5.304259    90.671916  0.107100
H      2.924653     5.867240    89.480826  0.107100
H      3.797035     4.385702    89.121367  0.107100
H     12.027859     4.929421    91.545071  0.120800
H     12.731730     6.396585    92.062129  0.120800
H     12.552918     4.042793    89.157796  0.102900
H     13.028872     5.138626    87.947689  0.102900
H     -0.001544     4.531134    88.994730  0.102900
H      0.773922     9.718610    91.309423  0.101900
H      1.160079     9.503003    89.656119  0.101900
H     -0.490635    10.175366    90.054141  0.101900
H     11.367046     7.451958    90.606429  0.119600
H     10.734242     5.922927    90.377818  0.119600
H     12.107764     8.915893    88.460486  0.105000
H     12.438654     7.644915    87.253107  0.105000
H     11.041407     8.724824    86.924905  0.105000
H     11.178419     3.053615    87.494363  0.108600
H      9.681450     3.730249    86.619443  0.108600
H      9.538693     2.965301    88.146527  0.108600
H      8.662659     6.697167    89.130659  0.119000
H      8.691991     7.682617    87.790639  0.119000
H      9.556938     8.155493    91.484116  0.102400
H      7.953923     7.519184    91.332153  0.102400
H      8.321941     9.222472    91.906416  0.102400
H     10.545266    12.448094    88.201035  0.101200
H     11.622625    11.033023    88.017530  0.101200
H     10.584414    11.363072    86.722759  0.101200
H      7.310413    10.379176    89.738118  0.122000
H      7.479394     9.634046    88.226138  0.122000
H      6.562571     7.090186    88.171623  0.099800
H      6.446550     6.538180    89.831245  0.099800
H      4.866935     6.866592    89.006005  0.099800
H      3.311609     9.118409    85.748170  0.101100
H      2.567265     9.257245    87.339881  0.101100
H      3.583043    10.690779    86.679026  0.101100
H      4.352256     8.327972    90.871498  0.096100
H      5.943632     8.147657    91.630265  0.096100
H      5.152324     9.691807    91.265585  0.096100
C      5.286522     8.122257    24.984258 -0.239000
C      6.345748     8.893243    24.109147 -0.167600
C      5.817536     9.352179    22.723046 -0.029300
C      5.212202     8.043541    21.958055 -0.237800
C      4.680661    10.409697    22.936065  0.439900
O      4.738837    11.224180    23.885898 -0.448400
O      3.652852    10.181093    22.201320 -0.358300
C      2.612183    11.224037    22.177512 -0.065100
C      6.885253     9.901354    21.748334 -0.165100
C      7.778662    11.255351    22.053369 -0.009900
C      8.094854    11.580007    23.578258 -0.246800
C      9.081624    11.037045    21.241809  0.432100
O     10.205840    11.206710    21.730263 -0.452200
O      8.839289    10.417684    20.056384 -0.355800
C      9.872139    10.013760    19.249084 -0.056200
C      6.926541    12.450786    21.546307 -0.171000
C      7.710830    -0.440988    21.104078 -0.031000
C      8.433734    13.565214    19.683116 -0.244000
C      6.494527     0.603845    20.893559  0.435200
O      6.137306     0.996659    19.756160 -0.458900
O      5.896549     0.940062    22.018313 -0.347000
C      4.747995     1.824721    21.925975 -0.066900
C      8.607317     0.020315    22.268004 -0.170400
C      9.307478     1.361793    22.547733 -0.028400
C     10.553201     1.104347    23.402364 -0.243800
C      9.791556     1.708903    21.123662  0.439600
O     10.643696     1.069281    20.583462 -0.450700
O      9.212176     2.759325    20.702550 -0.354600
C      9.746495     3.400079    19.571051 -0.055900
C      8.422145     2.526253    23.186244 -0.159600
C      7.966818     2.609857    24.649366 -0.035600
C      6.866014     3.708815    24.738461 -0.229900
C      9.071046     3.151767    25.613083  0.436800
O      9.777288     4.165947    25.328525 -0.452100
O      9.127610     2.516308    26.785940 -0.352200
C     10.043566     2.925529    27.770062 -0.056800
C      7.336728     1.322528    25.198149 -0.236300
H      4.486349     8.845507    25.184265  0.087100
H      4.780110     7.309588    24.542303  0.087100
H      5.779405     7.731538    25.906534  0.087100
H      6.603685     9.760949    24.677265  0.098700
H      7.256803     8.265168    23.969609  0.098700
H      4.338066     7.650066    22.430390  0.097400
H      4.998118     8.226697    20.905200  0.097400
H      6.008161     7.284689    21.838450  0.097400
H      1.894108    11.244618    23.043072  0.107100
H      2.115930    11.049145    21.251107  0.107100
H      2.996345    12.237753    22.068201  0.107100
H      7.510565     9.000715    21.625374  0.120800
H      6.477115    10.131729    20.738863  0.120800
H      7.232054    11.964097    24.133226  0.102900
H      8.475047    10.675825    24.056946  0.102900
H      8.852667    12.285630    23.830116  0.102900
H     10.120225    10.801299    18.559051  0.101900
H      9.609426     9.034724    18.735875  0.101900
H     10.815553     9.941005    19.725810  0.101900
H      6.219592    12.198803    20.723395  0.119600
H      6.191639    12.797292    22.244355  0.119600
H      9.427485    13.049887    19.730779  0.105000
H      7.744025    13.015587    18.964387  0.105000
H      8.681136     0.317407    19.228756  0.105000
H      3.945170     1.300513    21.355063  0.108600
H      4.371991     2.024434    22.910510  0.108600
H      4.857882     2.768252    21.388832  0.108600
H      7.994558    -0.084331    23.148821  0.119000
H      9.455063    -0.552508    22.242075  0.119000
H     11.116960     2.037908    23.416993  0.102400
H     11.141382     0.250203    23.000467  0.102400
H     10.351869     0.838301    24.408203  0.102400
H     10.715201     3.772834    19.848678  0.101200
H      9.073937     4.145328    19.153311  0.101200
H      9.946439     2.576179    18.854837  0.101200
H      7.517270     2.596338    22.584770  0.122000
H      8.911915     3.473345    22.948858  0.122000
H      6.532000     3.696935    25.771934  0.099800
H      5.980809     3.414303    24.092885  0.099800
H      7.247435     4.651637    24.244457  0.099800
H      9.639474     2.675185    28.730999  0.101100
H     10.037812     4.016330    27.876074  0.101100
H     11.044401     2.571983    27.586026  0.101100
H      6.659577     0.867760    24.462862  0.096100
H      8.145695     0.691825    25.493381  0.096100
H      6.865008     1.410245    26.131351  0.096100
C      0.661420    12.454214   116.035857 -0.239000
C      1.140799    12.600990   117.424748 -0.167600
C      2.484021    11.976556   117.821766 -0.029300
C      2.404191    10.502165   117.308034 -0.237800
C      3.721685    12.711959   117.233118  0.439900
O      4.832276    12.198834   117.505561 -0.448400
O      3.497463    -0.420326   116.409649 -0.358300
C      4.652130     0.291973   116.030022 -0.065100
C      2.576597    11.975730   119.371541 -0.165100
C      2.884989    13.219221   120.314100 -0.009900
C      2.163406     0.361716   119.987389 -0.246800
C      4.417798    13.421049   120.234655  0.432100
O      5.141243    12.591589   120.823952 -0.452200
O      4.813068     0.292968   119.513142 -0.355800
C      6.178277     0.494659   119.517858 -0.056200
C      2.414889    12.805969   121.765125 -0.171000
C      2.473449    -0.481194   123.001370 -0.031000
C      3.914738     0.238797   123.153270 -0.244000
C      1.292816     0.591638   123.011938  0.435200
O      0.105459     0.332628   122.682090 -0.458900
O      1.681057     1.813015   123.401192 -0.347000
C      0.944322     3.015810   122.948677 -0.066900
C      2.291695    12.936318   124.400654 -0.170400
C      2.083442    11.389948   124.620145 -0.028400
C      0.832867    10.864597   123.860126 -0.243800
C      3.274095    10.532423   124.021258  0.439600
O      3.203835     9.304992   123.841701 -0.450700
O      4.343637    11.266336   123.754819 -0.354600
C      5.567559    10.602147   123.435253 -0.055900
C      1.911957    10.967435   126.112263 -0.159600
C      2.839888    11.365795   127.268648 -0.035600
C      4.379747    11.314858   126.864663 -0.229900
C      2.559799    10.295526   128.344190  0.436800
O      1.730758    10.490022   129.263488 -0.452100
O      3.172384     9.132889   128.061975 -0.352200
C      3.466473     8.212477   129.119997 -0.056800
C      2.549134    12.820758   127.809217 -0.236300
H     -0.058281    13.179898   115.741133  0.087100
H      1.489663    12.473215   115.322750  0.087100
H      0.145245    11.475185   115.833865  0.087100
H      1.305389    -0.553654   117.605625  0.098700
H      0.292291    12.195156   118.095401  0.098700
H      3.344163     9.890338   117.537459  0.097400
H      2.189496    10.447155   116.258922  0.097400
H      1.576148    10.011998   117.877629  0.097400
H      4.267309     1.051542   115.392491  0.107100
H      5.383592    -0.289403   115.457458  0.107100
H      5.191538     0.802898   116.867586  0.107100
H      3.471642    11.311907   119.551143  0.120800
H      1.708084    11.421267   119.776854  0.120800
H      1.057572     0.234708   120.161327  0.102900
H      2.548898     1.105011   120.643185  0.102900
H      2.376173     0.579132   119.014778  0.102900
H      6.672722     0.809527   120.470069  0.101900
H      6.677498    -0.470405   119.136605  0.101900
H      6.352202     1.257720   118.773995  0.101900
H      2.890780    11.932496   122.028024  0.119600
H      1.369188    12.520804   121.740308  0.119600
H      4.762616    -0.455380   123.150860  0.105000
H      3.977681     0.962369   123.998107  0.105000
H      4.082365     0.872860   122.239643  0.105000
H     -0.121329     2.909191   123.038705  0.108600
H      1.239168     3.246755   121.934220  0.108600
H      1.273171     3.800790   123.667036  0.108600
H      1.526513    13.441494   125.033293  0.119000
H      3.174328    13.183141   124.997404  0.119000
H      0.027726    11.582249   124.072515  0.102400
H      0.986219    10.726801   122.824891  0.102400
H      0.586726     9.865545   124.135241  0.102400
H      6.219622    11.431964   123.382031  0.101200
H      5.564382     9.961822   122.581590  0.101200
H      5.771353     9.854398   124.202858  0.101200
H      1.958274     9.860224   126.036639  0.122000
H      0.817089    11.098686   126.372809  0.122000
H      4.680679    10.441028   126.376251  0.099800
H      4.639920    12.155536   126.200406  0.099800
H      4.972460    11.333365   127.808334  0.099800
H      4.540746     8.212073   129.516029  0.101100
H      3.332084     7.207568   128.804422  0.101100
H      2.909766     8.419474   129.995367  0.101100
H      3.090722    -0.558033   127.281670  0.096100
H      1.506313    13.044865   127.719005  0.096100
H      2.961247    12.862969   128.804964  0.096100
C      3.336961     0.131372   149.976226 -0.239000
C      3.090529     1.395163   149.077308 -0.167600
C      4.282681     2.237024   148.484047 -0.029300
C      3.694700     3.548461   147.942128 -0.237800
C      5.187672     2.634342   149.735635  0.439900
O      6.232847     2.033088   150.008383 -0.448400
O      4.751970     3.651981   150.445192 -0.358300
C      5.294018     4.015056   151.692978 -0.065100
C      5.104083     1.403595   147.417504 -0.165100
C      4.661520     1.064735   145.960941 -0.009900
C      3.162828     0.735071   145.951129 -0.246800
C      4.700965     2.353927   145.089851  0.432100
O      5.210371     3.409366   145.530294 -0.452200
O      4.353097     2.134327   143.794312 -0.355800
C      4.694507     3.025741   142.684028 -0.056200
C      5.491765    -0.117560   145.387913 -0.171000
C      7.039875    -0.172664   145.246086 -0.031000
C      7.499062     1.132880   144.601087 -0.244000
C      7.850555    -0.322996   146.496965  0.435200
O      7.446133    13.256793   147.449087 -0.458900
O      9.213930     0.088718   146.354574 -0.347000
C     10.036654    -0.071254   147.506222 -0.066900
C      7.589415    12.902274   144.295183 -0.170400
C      7.484473    11.336429   144.653497 -0.028400
C      6.113834    10.990533   145.207430 -0.243800
C      7.628219    10.765254   143.226355  0.439600
O      8.584840    11.067164   142.464314 -0.450700
O      6.653058     9.961991   142.833729 -0.354600
C      6.821463     9.357321   141.634084 -0.055900
C      8.622995    10.880514   145.575240 -0.159600
C      9.209390     9.432070   145.498328 -0.035600
C     10.019291     9.340378   146.811596 -0.229900
C     10.221091     9.315621   144.301907  0.436800
O     11.201756    10.058628   144.225223 -0.452100
O     10.049372     8.245158   143.512336 -0.352200
C     11.013779     7.920052   142.483879 -0.056800
C      8.174171     8.292562   145.464679 -0.236300
H      4.365917     0.095978   150.261560  0.087100
H      2.764649     0.209700   150.901111  0.087100
H      3.101124    13.360801   149.530942  0.087100
H      2.365614     1.159429   148.343983  0.098700
H      2.513208     2.158446   149.677814  0.098700
H      4.517649     4.266723   147.770614  0.097400
H      3.154002     3.286378   146.969247  0.097400
H      3.048381     4.021241   148.655285  0.097400
H      6.239868     4.447015   151.553942  0.107100
H      4.723388     4.759523   152.207730  0.107100
H      5.331914     3.191450   152.386604  0.107100
H      5.331836     0.390555   147.816908  0.120800
H      6.131799     1.816618   147.300451  0.120800
H      2.847579     0.358688   144.948618  0.102900
H      2.598474     1.607483   146.136342  0.102900
H      2.913444     0.035869   146.744316  0.102900
H      4.467426     2.564759   141.754448  0.101900
H      5.739565     3.433172   142.640188  0.101900
H      4.039908     3.813213   142.819888  0.101900
H      5.167266    13.228841   145.934972  0.119600
H      5.004095    -0.295725   144.387335  0.119600
H      8.586844     1.243899   144.395319  0.105000
H      6.995755     1.271753   143.627942  0.105000
H      7.232347     1.971008   145.122802  0.105000
H      9.487965     0.386558   148.323185  0.108600
H     11.007006     0.387751   147.460993  0.108600
H     10.204077    13.035370   147.688258  0.108600
H      8.661000    13.198970   144.093324  0.119000
H      7.150666    13.178812   143.307095  0.119000
H      6.145906    11.397032   146.188240  0.102400
H      6.106328     9.947871   145.266804  0.102400
H      5.285992    11.432927   144.668207  0.102400
H      6.251905     8.384388   141.478426  0.101200
H      6.349225     9.990538   140.869920  0.101200
H      7.810529     9.182139   141.258272  0.101200
H      8.338660    11.088368   146.620307  0.122000
H      9.327114    11.615044   145.573143  0.122000
H     10.991449     9.898310   146.672668  0.099800
H      9.482924     9.621435   147.694391  0.099800
H     10.170250     8.242689   147.033313  0.099800
H     11.993548     8.062098   142.816193  0.101100
H     10.803118     6.923140   142.078098  0.101100
H     10.824238     8.576719   141.651173  0.101100
H      7.666822     8.384530   146.388912  0.096100
H      8.744255     7.346621   145.584017  0.096100
H      7.529683     8.318576   144.530636  0.096100
C      5.337034     4.796167    12.824456 -0.239000
C      3.957354     5.229078    12.213501 -0.167600
C      2.745176     4.226690    12.359597 -0.029300
C      3.202436     2.947205    11.638616 -0.237800
C      2.638431     4.040286    13.899720  0.439900
O      2.232314     4.914911    14.698768 -0.448400
O      2.742760     2.737701    14.215906 -0.358300
C      2.503895     2.253406    15.492310 -0.065100
C      1.409724     4.953370    11.878433 -0.165100
C      0.817683     4.817474    10.397839 -0.009900
C      1.943177     5.312318     9.376398 -0.246800
C      0.387235     3.402211    10.100981  0.432100
O     -0.023944     2.593972    10.929849 -0.452200
O      0.406961     3.289919     8.745137 -0.355800
C     -0.040097     2.155347     8.075650 -0.056200
C     -0.354146     5.792239    10.112031 -0.171000
C     12.335143     5.488631    10.626776 -0.031000
C     11.593506     6.700610     9.996013 -0.244000
C     11.639573     4.314946     9.895492  0.435200
O     11.511163     4.245032     8.655024 -0.458900
O     10.907195     3.577976    10.753821 -0.347000
C     10.089655     2.656168    10.246901 -0.066900
C     12.276112     5.501838    12.236641 -0.170400
C     11.107238     6.070596    13.098066 -0.028400
C      9.814020     5.261747    12.943671 -0.243800
C     10.757525     7.568134    12.663245  0.439600
O      9.642389     7.970538    12.402319 -0.450700
O     11.859109     8.360422    12.654646 -0.354600
C     11.767415     9.758671    12.314992 -0.055900
C     11.696198     5.965692    14.569802 -0.159600
C     10.826794     6.151472    15.875565 -0.035600
C     11.842514     6.302662    17.025395 -0.229900
C     10.023486     4.874033    16.110571  0.436800
O     10.652079     3.848403    16.362223 -0.452100
O      8.695570     4.880424    15.866474 -0.352200
C      7.828490     3.800325    16.055470 -0.056800
C      9.919472     7.396392    15.867296 -0.236300
H      6.130665     5.543764    12.650075  0.087100
H      5.380485     4.677843    13.938033  0.087100
H      5.684670     3.860947    12.459920  0.087100
H      3.654291     6.239744    12.473627  0.098700
H      4.191612     5.356323    11.158066  0.098700
H      2.373393     2.226247    11.625150  0.097400
H      3.605949     3.166808    10.680188  0.097400
H      3.999742     2.485268    12.237455  0.097400
H      3.237300     2.614124    16.180873  0.107100
H      1.601381     2.693945    15.945691  0.107100
H      2.444414     1.189305    15.602065  0.107100
H      0.567232     4.622028    12.548980  0.120800
H      1.620133     6.050554    12.186846  0.120800
H      2.858060     4.746967     9.595256  0.102900
H      1.808135     5.119598     8.322402  0.102900
H      2.076645     6.388578     9.491430  0.102900
H     13.463650     2.298594     7.326230  0.101900
H     13.539834     1.587140     8.765093  0.101900
H      0.869273     1.622579     7.735221  0.101900
H      0.099410     6.722048    10.407268  0.119600
H     -0.554279     5.893703     9.034820  0.119600
H     11.993592     7.715316    10.168409  0.105000
H     11.686304     6.703262     8.861553  0.105000
H     10.498643     6.609576    10.192923  0.105000
H      9.511029     2.156239    10.937994  0.108600
H      9.392156     3.102040     9.500202  0.108600
H     10.737527     1.869355     9.891462  0.108600
H     13.123873     6.132565    12.494549  0.119000
H     12.549363     4.474422    12.564680  0.119000
H      9.840630     4.235825    13.319941  0.102400
H      9.016033     5.656802    13.628824  0.102400
H      9.315676     5.432753    11.932837  0.102400
H     12.586433    10.337819    12.862872  0.101200
H     11.897149     9.915132    11.278827  0.101200
H     10.846044    10.261409    12.553313  0.101200
H     12.192535     5.044557    14.748814  0.122000
H     12.498451     6.672237    14.675606  0.122000
H     12.360987     7.234976    17.094861  0.099800
H     12.559353     5.526450    17.112618  0.099800
H     11.233456     6.120982    17.868636  0.099800
H      8.282734     2.905605    15.657538  0.101100
H      6.899571     3.907157    15.507974  0.101100
H      7.638951     3.560000    17.143835  0.101100
H      9.297175     7.439100    15.029510  0.096100
H      9.276964     7.260416    16.694860  0.096100
H     10.362111     8.408707    15.881295  0.096100
C      6.288736     4.703221    -4.105813 -0.239000
C      5.864636     3.193200    -3.648317 -0.167600
C      7.042881     2.226120    -3.827899 -0.029300
C      7.388097     2.095634    -5.311519 -0.237800
C      8.294630     2.869437    -3.102725  0.439900
O      8.440341     2.854239    -1.863857 -0.448400
O      9.260034     3.275228    -3.949403 -0.358300
C     10.569997     3.586055    -3.496465 -0.065100
C      6.677959     0.859276    -3.106734 -0.165100
C      7.554212    -0.456546    -3.322347 -0.009900
C      9.036131    -0.055350    -3.194619 -0.246800
C      7.253860    13.216710    -4.764274  0.432100
O      6.111973    13.239632    -5.228952 -0.452200
O      8.380916    12.708237    -5.357924 -0.355800
C      8.207936    12.188668    -6.667681 -0.056200
C      7.032030    12.666988    -2.266735 -0.171000
C      7.780351    11.495816    -1.641946 -0.031000
C      8.992770    12.122948    -0.840414 -0.244000
C      7.004590    10.781858    -0.496578  0.435200
O      7.423730     9.808647     0.044027 -0.458900
O      5.961904    11.469021    -0.074931 -0.347000
C      5.285124    11.121908     1.112876 -0.066900
C      8.394214    10.444386    -2.637399 -0.170400
C      7.609880     9.306938    -3.344254 -0.028400
C      7.371008     8.234671    -2.336684 -0.243800
C      6.172540     9.810745    -3.776466  0.439600
O      5.257342     9.839628    -3.006489 -0.450700
O      6.136965    10.050697    -5.067019 -0.354600
C      4.858235    10.358717    -5.662179 -0.055900
C      8.339768     8.840643    -4.610051 -0.159600
C      9.798050     8.167642    -4.638441 -0.035600
C      9.985737     6.911326    -3.643829 -0.229900
C     10.916632     9.224265    -4.498292  0.436800
O     11.196846    10.138614    -5.314233 -0.452100
O     11.585793     9.074324    -3.231759 -0.352200
C     12.740487     9.872928    -2.901660 -0.056800
C      9.963646     7.628922    -6.124030 -0.236300
H      5.495777     5.296025    -4.431560  0.087100
H      6.978222     4.768846    -4.936717  0.087100
H      6.648843     5.266060    -3.243369  0.087100
H      5.571377     3.191602    -2.510310  0.098700
H      4.897008     2.921176    -4.121870  0.098700
H      7.700495     3.023295    -5.854441  0.097400
H      6.517614     1.644535    -5.851038  0.097400
H      8.289130     1.467333    -5.462796  0.097400
H     10.988273     2.649200    -3.242213  0.107100
H     11.168424     4.074245    -4.315520  0.107100
H     10.612006     4.260360    -2.557247  0.107100
H      6.693426     1.149217    -2.000930  0.120800
H      5.687848     0.466300    -3.203510  0.120800
H      9.673548    13.259414    -3.218476  0.102900
H      9.199144     0.478138    -2.265960  0.102900
H      9.314853     0.533623    -4.009338  0.102900
H      9.039346    11.673595    -7.006236  0.101900
H      8.020296    13.159040    -7.189509  0.101900
H      7.266296    11.576989    -6.748345  0.101900
H      6.071414    12.273490    -2.588338  0.119600
H      6.709149    13.168332    -1.399558  0.119600
H      9.942869    12.178193    -1.361451  0.105000
H      9.230171    11.618863     0.127730  0.105000
H      8.763917    13.157134    -0.491913  0.105000
H      4.664483    10.330487     1.035502  0.108600
H      4.693368    12.036937     1.238921  0.108600
H      5.948430    10.974454     1.948079  0.108600
H      8.943850    11.030302    -3.363859  0.119000
H      9.209152     9.863430    -2.218197  0.119000
H      6.579042     8.453719    -1.677277  0.102400
H      8.284839     7.929653    -1.782554  0.102400
H      7.099087     7.334639    -2.898200  0.102400
H      5.055364    10.646404    -6.702420  0.101200
H      4.388159    11.192049    -5.098121  0.101200
H      4.215423     9.480464    -5.735291  0.101200
H      7.664527     8.108065    -5.021759  0.122000
H      8.322712     9.727352    -5.308978  0.122000
H     10.993446     6.571535    -3.923680  0.099800
H      9.988757     7.128665    -2.513991  0.099800
H      9.216748     6.163591    -3.910143  0.099800
H     -0.581177     9.696287    -3.543455  0.101100
H     13.023479     9.625416    -1.905842  0.101100
H     12.469046    10.887059    -3.113802  0.101100
H     10.939262     7.213067    -6.281226  0.096100
H      9.290090     6.897651    -6.548569  0.096100
H      9.924955     8.434801    -6.857362  0.096100
C      5.269943     6.358672    39.406059 -0.239000
C      5.714006     7.520544    40.246142 -0.167600
C      6.166415     7.381217    41.660229 -0.029300
C      4.967271     6.846379    42.460675 -0.237800
C      7.308308     6.295031    41.803415  0.439900
O      7.290982     5.426691    42.673025 -0.448400
O      8.327586     6.487529    40.924239 -0.358300
C      9.445842     5.590333    40.862424 -0.065100
C      6.615537     8.796215    42.230761 -0.165100
C      6.395716     9.380672    43.752144 -0.009900
C      4.846140     9.247288    44.114967 -0.246800
C      7.110569     8.510069    44.826312  0.432100
O      6.775774     8.584035    46.020271 -0.452200
O      8.077780     7.714520    44.370899 -0.355800
C      8.837068     6.920748    45.312875 -0.056200
C      6.907373    10.858909    43.778879 -0.171000
C      8.362068    11.398973    43.405761 -0.031000
C      9.473330    10.379975    44.045768 -0.244000
C      8.699233    11.363395    41.864431  0.435200
O      9.818025    11.083105    41.404777 -0.458900
O      7.711419    11.782877    41.141194 -0.347000
C      7.887666    11.723764    39.739070 -0.066900
C      8.695849    12.790350    43.911249 -0.170400
C      8.210817    13.390415    45.240142 -0.028400
C      6.790456    -0.428789    45.412737 -0.243800
C      8.589387    12.465364    46.408747  0.439600
O      9.768849    12.197266    46.632041 -0.450700
O      7.518398    12.161818    47.256924 -0.354600
C      7.659397    11.193694    48.269839 -0.055900
C      9.059111     0.543447    45.478559 -0.159600
C      8.827438     1.828364    44.618653 -0.035600
C      8.831268     1.636438    43.081690 -0.229900
C     10.080100     2.647081    44.939739  0.436800
O     10.030857     3.394714    45.973521 -0.452100
O     11.166218     2.488112    44.217604 -0.352200
C     12.230999     3.504319    44.324854 -0.056800
C      7.557934     2.623091    44.975950 -0.236300
H      4.880118     6.729483    38.434324  0.087100
H      5.937445     5.553525    39.297351  0.087100
H      4.415991     5.926294    39.876437  0.087100
H      4.811252     8.132439    40.213492  0.098700
H      6.522837     8.105081    39.738442  0.098700
H      5.128573     6.508187    43.511776  0.097400
H      4.649748     5.922890    42.019064  0.097400
H      4.166170     7.515679    42.445297  0.097400
H      9.847291     5.345865    41.847628  0.107100
H      9.058984     4.722396    40.442496  0.107100
H     10.165066     6.086920    40.273725  0.107100
H      6.102422     9.577027    41.683292  0.120800
H      7.695185     8.955092    41.991199  0.120800
H      4.612164     9.927158    44.955480  0.102900
H      4.160066     9.470279    43.311027  0.102900
H      4.511442     8.261964    44.527810  0.102900
H      9.842102     6.973972    44.891057  0.101900
H      8.862187     7.240522    46.324749  0.101900
H      8.596018     5.810855    45.340168  0.101900
H      6.813431    11.114436    44.804132  0.119600
H      6.245044    11.549093    43.245963  0.119600
H      9.338918    10.125163    45.140130  0.105000
H      9.451880     9.413773    43.449925  0.105000
H     10.468179    10.858235    43.917693  0.105000
H      7.017884    12.043130    39.206866  0.108600
H      8.741855    12.312450    39.312998  0.108600
H      8.261689    10.747985    39.400085  0.108600
H      8.189298    13.415123    43.177710  0.119000
H      9.839978    12.920341    43.870561  0.119000
H      6.143815    12.913042    45.491831  0.102400
H      6.529239     0.117168    46.324279  0.102400
H      6.487050     0.158470    44.583170  0.102400
H      8.267747    10.349602    47.912207  0.101200
H      8.287836    11.645666    48.969046  0.101200
H      6.701280    10.960287    48.629064  0.101200
H      8.983106     0.961373    46.509895  0.122000
H     10.111907     0.230844    45.532973  0.122000
H      8.759874     2.595709    42.620276  0.099800
H      9.721461     1.152635    42.720725  0.099800
H      7.969615     1.124449    42.779492  0.099800
H     12.983349     3.221797    43.557857  0.101100
H     12.719344     3.553052    45.289643  0.101100
H     11.812217     4.403517    43.920531  0.101100
H      6.605555     2.313157    44.475352  0.096100
H      7.274221     2.360905    46.044337  0.096100
H      7.598214     3.707220    44.897473  0.096100
C      0.057071     8.191601    -6.463994 -0.239000
C      0.002615     6.804856    -7.165885 -0.167600
C      1.357068     6.189390    -7.509072 -0.029300
C      2.064101     7.057028    -8.582955 -0.237800
C      2.323265     6.034416    -6.318216  0.439900
O      3.425024     5.513735    -6.528343 -0.448400
O      2.057234     6.696110    -5.240971 -0.358300
C      2.944851     6.620204    -4.173647 -0.065100
C      1.130578     4.794706    -8.173374 -0.165100
C      0.392674     3.623634    -7.285931 -0.009900
C      0.538100     3.635188    -5.767372 -0.246800
C     13.065940     3.614646    -7.575633  0.432100
O     12.492394     4.373659    -8.325017 -0.452200
O     12.443797     2.683849    -6.806692 -0.355800
C     11.115788     2.312605    -6.946544 -0.056200
C      1.113900     2.282940    -7.684175 -0.171000
C      0.892845     1.652208    -9.102618 -0.031000
C      1.023768     2.609931   -10.267731 -0.244000
C      2.077781     0.638270    -9.284396  0.435200
O      2.707314     0.479684   -10.359289 -0.458900
O      2.386128    -0.080923    -8.197296 -0.347000
C      3.551761    13.325680    -8.220164 -0.066900
C     -0.553560     1.008036    -9.139015 -0.170400
C     13.319291    -0.305737    -9.999423 -0.028400
C     -0.383203    -0.280365   261.335875 -0.243800
C     -0.410308    12.649222    -9.288280  0.439600
O     13.490678    12.410376    -8.097010 -0.450700
O      0.322106    11.819554   -10.055659 -0.354600
C      0.692006    10.546501    -9.616058 -0.055900
C     11.734737    -0.346666    -9.945619 -0.159600
C     10.803313    12.552751   -10.215784 -0.035600
C     11.182156    11.899733   261.286924 -0.229900
C      9.355272    13.074797   -10.503364  0.436800
O      9.105579    -0.376162   261.402844 -0.452100
O      8.507931    12.804210    -9.584435 -0.352200
C      7.261002    13.426973    -9.662598 -0.056800
C     10.766266    11.534322    -9.062473 -0.236300
H      0.250525     7.995895    -5.422866  0.087100
H      0.810160     8.816453    -6.842854  0.087100
H     13.317875     8.800894    -6.329433  0.087100
H     -0.557435     6.203598    -6.556844  0.098700
H     -0.569344     6.914464    -8.160650  0.098700
H      3.084946     7.353156    -8.243619  0.097400
H      1.526355     7.994143    -8.798067  0.097400
H      2.283640     6.546815    -9.566201  0.097400
H      3.250016     5.574338    -3.943941  0.107100
H      2.749282     7.240928    -3.330920  0.107100
H      3.833832     7.173124    -4.515368  0.107100
H      0.425967     5.010415    -9.020239  0.120800
H      2.102314     4.562191    -8.530977  0.120800
H      0.250939     2.686775    -5.338194  0.102900
H      1.550780     3.789274    -5.420437  0.102900
H     -0.094634     4.428016    -5.237270  0.102900
H     10.856148     1.652101    -6.034333  0.101900
H     10.469055     3.241978    -6.767503  0.101900
H     10.750050     2.016893    -7.869305  0.101900
H      2.203557     2.431383    -7.534372  0.119600
H      1.016103     1.543725    -6.862320  0.119600
H      0.142336     3.214380   -10.463449  0.105000
H      1.982580     3.232870   -10.260807  0.105000
H      1.068630     1.989427   -11.084996  0.105000
H      3.779107    12.862356    -7.214269  0.108600
H      3.515122    12.446677    -8.897281  0.108600
H      4.497276    -0.277133    -8.390421  0.108600
H     13.436605     0.793663    -8.087254  0.119000
H     12.891349     1.722933    -9.344957  0.119000
H      0.746518    -0.193165   261.188408  0.102400
H     13.535958    13.019772   260.903860  0.102400
H     13.253862     0.491094   260.837857  0.102400
H      1.295597    10.065975   -10.362802  0.101200
H     -0.125254     9.935115    -9.331924  0.101200
H      1.334672    10.620420    -8.746559  0.101200
H     11.352457     0.376851   -10.713239  0.122000
H     11.341710     0.034301    -8.987259  0.122000
H     12.161018    11.541883   261.194885  0.099800
H     11.130004    12.653568   260.456312  0.099800
H     10.521620    11.057063   260.927647  0.099800
H      6.927521    -0.490916   -10.646899  0.101100
H      6.501016    12.794902    -9.250347  0.101100
H      7.368858     0.142524    -9.069058  0.101100
H      9.917442    10.809532    -9.003135  0.096100
H     10.931453    12.013506    -8.130204  0.096100
H     11.629649    10.901814    -9.083912  0.096100
C     -0.307041     2.414620   197.717852 -0.239000
C      0.929338     2.055294   196.876598 -0.167600
C      2.345859     2.281590   197.509481 -0.029300
C      2.288638     2.010104   199.067899 -0.237800
C      3.208544     1.218511   196.911678  0.439900
O      4.156844     0.786171   197.573745 -0.448400
O      3.145183     1.220548   195.560796 -0.358300
C      4.059031     0.497160   194.792336 -0.065100
C      2.825232     3.779379   197.124699 -0.165100
C      4.216856     4.463226   197.791122 -0.009900
C      5.356721     3.367954   197.914329 -0.246800
C      4.797145     5.464615   196.726701  0.432100
O      6.007346     5.844992   196.692092 -0.452200
O      3.879708     6.107246   195.938674 -0.355800
C      4.240512     6.890950   194.908547 -0.056200
C      4.036885     5.070344   199.178791 -0.171000
C      3.566637     6.489163   199.528588 -0.031000
C      2.196138     6.689183   198.908815 -0.244000
C      3.476180     6.626141   201.087736  0.435200
O      2.724237     7.462441   201.612606 -0.458900
O      4.345099     5.890335   201.758978 -0.347000
C      4.135095     5.624318   203.091264 -0.066900
C      4.577143     7.488385   198.880157 -0.170400
C      4.990600     8.940808   199.383910 -0.028400
C      5.496890     8.853533   200.823162 -0.243800
C      6.200028     9.526194   198.581741  0.439600
O      6.767643    10.599729   198.913403 -0.450700
O      6.529080     8.921349   197.480477 -0.354600
C      7.414930     9.425441   196.529954 -0.055900
C      3.806822     9.931432   199.334005 -0.159600
C      3.413995    10.845593   198.060465 -0.035600
C      3.150192     9.896576   196.789682 -0.229900
C      2.178014    11.688621   198.512994  0.436800
O      2.149313    12.293850   199.563124 -0.452100
O      1.152232    11.518374   197.750520 -0.352200
C     -0.080380    12.153459   198.109137 -0.056800
C      4.382645    11.964641   197.674763 -0.236300
H      0.018618     3.230669   198.396901  0.087100
H     12.957417     2.642830   197.138579  0.087100
H     -0.485119     1.503058   198.393666  0.087100
H      0.787224     1.056146   196.510312  0.098700
H      0.977819     2.652933   196.025955  0.098700
H      3.193478     1.764859   199.596511  0.097400
H      1.703707     1.145254   199.256993  0.097400
H      1.875992     2.834818   199.662415  0.097400
H      3.932100    -0.549356   194.945642  0.107100
H      5.018498     0.753831   195.119812  0.107100
H      4.167036     0.824687   193.744470  0.107100
H      2.034947     4.449227   197.246159  0.120800
H      3.095025     3.913651   196.092689  0.120800
H      5.759075     2.799852   197.072802  0.102900
H      5.029574     2.633040   198.742436  0.102900
H      6.253392     3.823332   198.310323  0.102900
H      4.866089     7.797289   195.092600  0.101900
H      4.742856     6.267203   194.149576  0.101900
H      3.350865     7.312432   194.456674  0.101900
H      3.430923     4.410810   199.823097  0.119600
H      4.967616     4.925166   199.653349  0.119600
H      1.509874     5.855774   199.219362  0.105000
H      1.721383     7.696635   199.183351  0.105000
H      2.189530     6.756161   197.861477  0.105000
H      3.104644     5.256789   203.337017  0.108600
H      4.218584     6.483870   203.726876  0.108600
H      4.944618     4.947964   203.367168  0.108600
H      4.334075     7.697915   197.824992  0.119000
H      5.572276     7.035619   198.955303  0.119000
H      6.054323     9.638123   201.291993  0.102400
H      6.030552     7.992142   201.024912  0.102400
H      4.585473     8.814912   201.510414  0.102400
H      7.815765     8.642294   195.904635  0.101200
H      8.201002     9.997757   196.874105  0.101200
H      6.814601    10.015058   195.809910  0.101200
H      4.151920    10.746720   200.027309  0.122000
H      2.930922     9.426343   199.746732  0.122000
H      4.139919     9.545110   196.320465  0.099800
H      2.651571    10.503933   196.008714  0.099800
H      2.472836     9.115558   197.171692  0.099800
H     -0.162603    13.219302   197.789259  0.101100
H     13.299600    11.531137   197.757321  0.101100
H     -0.287250    12.146666   199.190950  0.101100
H      4.864333    12.618781   198.442065  0.096100
H      5.119531    11.403067   197.252478  0.096100
H      4.016779    12.682058   196.929851  0.096100
C     10.955364    -0.360283   153.537877 -0.239000
C     10.743476     1.103176   153.300675 -0.167600
C      9.440580     1.458269   152.634347 -0.029300
C      9.387245     0.750283   151.286634 -0.237800
C      8.205904     1.106337   153.553488  0.439900
O      7.117206     0.782235   153.059908 -0.448400
O      8.480496     1.137073   154.889308 -0.358300
C      7.461358     1.225176   155.817418 -0.065100
C      9.369050     2.950965   152.408988 -0.165100
C     10.509643     3.966798   152.207984 -0.009900
C      9.786264     5.351374   152.020651 -0.246800
C     11.329030     4.043827   153.564405  0.432100
O     10.870559     4.558286   154.566004 -0.452200
O     12.590681     3.596200   153.452618 -0.355800
C     13.400783     3.538334   154.593959 -0.056200
C     11.305595     3.547421   150.870551 -0.171000
C     12.528469     4.330104   150.229681 -0.031000
C     12.533219     5.854783   150.497340 -0.244000
C     -0.405709     3.715329   150.858104  0.435200
O     -0.081921     2.523983   150.681426 -0.458900
O      0.408137     4.580383   151.507487 -0.347000
C      1.723565     4.257456   151.675366 -0.066900
C     12.553158     4.022374   148.707502 -0.170400
C     11.731039     4.869478   147.628863 -0.028400
C     12.292554     6.281579   147.431937 -0.243800
C     10.223218     4.990358   148.044492  0.439600
O      9.636117     6.093210   148.320801 -0.450700
O      9.593863     3.716592   147.902372 -0.354600
C      8.180311     3.687978   148.244623 -0.055900
C     11.775640     4.095871   146.244855 -0.159600
C     12.863200     4.194029   145.147391 -0.035600
C     12.677726     5.524019   144.287669 -0.229900
C     12.515017     3.113824   144.044541  0.436800
O     11.387424     3.017736   143.520569 -0.452100
O     13.523183     2.324962   143.647232 -0.352200
C     13.476053     1.706708   142.389025 -0.056800
C      0.136059     4.040616   145.695664 -0.236300
H     11.947533    -0.557761   153.848112  0.087100
H     10.244818    13.427119   154.240644  0.087100
H     10.878651    13.192966   152.647529  0.087100
H     11.640286     1.419583   152.702993  0.098700
H     10.823405     1.594132   154.280369  0.098700
H     10.305422     0.627798   150.775264  0.097400
H      8.992845    -0.199086   151.540830  0.097400
H      8.718011     1.170836   150.502303  0.097400
H      6.755482     2.006670   155.667793  0.107100
H      6.984984     0.220965   155.743539  0.107100
H      7.792518     1.381046   156.837656  0.107100
H      8.634430     3.105581   151.639910  0.120800
H      8.666335     3.307388   153.211530  0.120800
H     10.456092     6.175350   151.989885  0.102900
H      8.991496     5.519410   152.709802  0.102900
H      9.296448     5.321781   151.104354  0.102900
H     13.367380     2.552675   155.066901  0.101900
H     13.119426     4.310657   155.302841  0.101900
H      0.181863     3.799926   154.225689  0.101900
H     10.533085     3.583023   150.098271  0.119600
H     11.538311     2.530428   150.872442  0.119600
H     13.354271     6.325716   149.948591  0.105000
H     11.532834     6.250498   150.242015  0.105000
H     12.691689     6.073023   151.498217  0.105000
H      2.371123     4.969685   152.158852  0.108600
H      1.744303     3.346785   152.300774  0.108600
H      2.121685     4.038679   150.678814  0.108600
H     -0.569559     4.100604   148.368409  0.119000
H     12.391682     2.930365   148.557898  0.119000
H     12.122517     6.957932   148.307440  0.102400
H     11.764676     6.747167   146.603042  0.102400
H     13.259971     6.294805   147.166757  0.102400
H      7.526610     3.863752   147.407428  0.101200
H      7.888506     4.299930   149.106065  0.101200
H      7.992195     2.624472   148.540557  0.101200
H     10.771834     4.248493   145.666966  0.122000
H     11.753156     3.025008   146.358600  0.122000
H     11.744443     5.586403   143.867882  0.099800
H     12.914107     6.346608   144.857387  0.099800
H     13.287555     5.425451   143.445248  0.099800
H     12.864203     0.789901   142.470529  0.101100
H      0.322958     1.462960   142.249058  0.101100
H     13.128299     2.424700   141.594137  0.101100
H      0.139900     3.140455   146.292222  0.096100
H      0.436609     4.917297   146.295104  0.096100
H      0.829536     3.823121   144.824938  0.096100
C      7.706000     7.138724    98.060714 -0.239000
C      7.244794     6.231626    96.870480 -0.167600
C      6.616791     4.850117    97.256999 -0.029300
C      5.315279     5.094015    98.062187 -0.237800
C      7.756421     4.131823    98.074074  0.439900
O      8.885544     3.866765    97.616257 -0.448400
O      7.417343     3.847661    99.303967 -0.358300
C      8.334372     3.118955   100.112788 -0.065100
C      6.417640     3.989167    95.992933 -0.165100
C      5.606482     2.647560    95.950440 -0.009900
C      6.145674     1.647443    97.008116 -0.246800
C      4.097163     2.855425    96.225410  0.432100
O      3.453496     3.845455    95.763910 -0.452200
O      3.495407     1.838254    96.830339 -0.355800
C      2.080423     1.897796    96.892249 -0.056200
C      5.819486     1.896915    94.511794 -0.171000
C      5.379697     2.519313    93.149547 -0.031000
C      3.923964     2.984734    93.043638 -0.244000
C      6.279203     3.768915    92.816456  0.435200
O      5.762893     4.802341    92.359443 -0.458900
O      7.629083     3.501068    92.907110 -0.347000
C      8.592643     4.460029    92.452893 -0.066900
C      5.691399     1.430278    91.977984 -0.170400
C      4.849760     0.189588    91.467821 -0.028400
C      4.761930    13.522847    92.716035 -0.243800
C      3.486748     0.551525    90.906552  0.439600
O      3.207049     1.630013    90.380754 -0.450700
O      2.684517    -0.565695    90.933865 -0.354600
C      1.438370    -0.570838    90.393403 -0.055900
C      5.584338    13.540021    90.366328 -0.159600
C      6.406993     0.019580    89.160055 -0.035600
C      6.845032    13.015824    88.187483 -0.229900
C      7.639087     0.792903    89.563086  0.436800
O      7.658701     2.034633    89.541367 -0.452100
O      8.570496     0.036140    90.207199 -0.352200
C      9.650500     0.659884    90.765471 -0.056800
C      5.575507     0.962412    88.307892 -0.236300
H      6.986067     7.722266    98.664352  0.087100
H      8.162210     6.463462    98.799913  0.087100
H      8.413277     7.880922    97.616891  0.087100
H      8.184996     5.958223    96.301124  0.098700
H      6.573372     6.744690    96.205930  0.098700
H      4.797846     4.235426    98.532892  0.097400
H      5.387967     5.859889    98.729052  0.097400
H      4.579551     5.523344    97.373120  0.097400
H      9.089692     3.856795   100.353163  0.107100
H      7.824024     2.698467   101.028560  0.107100
H      8.915983     2.335583    99.624201  0.107100
H      7.410852     3.700291    95.583233  0.120800
H      5.983934     4.603873    95.249117  0.120800
H      7.204114     1.702249    96.975349  0.102900
H      5.877186     0.608128    96.825796  0.102900
H      5.789333     1.954834    98.019705  0.102900
H      1.626907     1.993043    95.875344  0.101900
H      1.678319     0.977864    97.331830  0.101900
H      1.773271     2.709093    97.463526  0.101900
H      6.863534     1.693463    94.350097  0.119600
H      5.350412     0.951062    94.625805  0.119600
H      3.238708     2.287242    93.441751  0.105000
H      3.867596     3.945384    93.520889  0.105000
H      3.646498     3.293034    92.066161  0.105000
H      8.121520     5.475798    92.696912  0.108600
H      8.696812     4.423318    91.359510  0.108600
H      9.524968     4.348468    92.991776  0.108600
H      6.759027     1.129996    91.932481  0.119000
H      5.727695     2.036619    91.119249  0.119000
H      5.713381    13.304166    93.225081  0.102400
H      4.141343    -0.173544    93.431751  0.102400
H      4.345026    12.561036    92.429595  0.102400
H      0.977701    12.699249    90.823217  0.101200
H      0.877230     0.261899    90.851216  0.101200
H      1.451121    -0.484110    89.374051  0.101200
H      4.889077    12.871057    89.849291  0.122000
H      6.258382    12.846734    90.855275  0.122000
H      6.025152    12.404949    87.833683  0.099800
H      7.439816    13.436003    87.380453  0.099800
H      7.598056    12.303375    88.521077  0.099800
H      9.385277     1.133142    91.724200  0.101100
H     10.460966    -0.005779    90.806403  0.101100
H     10.086884     1.490827    90.172093  0.101100
H      6.081505     1.487045    87.523348  0.096100
H      5.231164     1.780676    88.950708  0.096100
H      4.625579     0.512759    88.004132  0.096100
C     13.275242    13.455254   193.942658 -0.239000
C     12.466947     0.542818   193.870525 -0.167600
C     12.262324     1.233457   192.487103 -0.029300
C     -0.577555     1.856322   192.097267 -0.237800
C     11.665139     0.287282   191.447119  0.439900
O     10.528833    -0.141007   191.522754 -0.448400
O     12.536211     0.042343   190.396215 -0.358300
C     12.103161    13.541251   189.203439 -0.065100
C     11.357277     2.514524   192.765557 -0.165100
C     10.480671     3.313242   191.645341 -0.009900
C     11.392236     3.642394   190.499738 -0.246800
C      9.298755     2.421633   191.108161  0.432100
O      8.325108     2.389146   191.809094 -0.452200
O      9.398635     1.893487   189.938608 -0.355800
C      8.424956     0.948445   189.589069 -0.056200
C      9.897637     4.681776   192.188476 -0.171000
C      9.404890     4.955000   193.635088 -0.031000
C      8.583922     6.293187   193.466441 -0.244000
C      8.377696     3.884003   194.209045  0.435200
O      8.729416     2.886939   194.767416 -0.458900
O      7.088825     4.215128   193.848275 -0.347000
C      6.087222     3.294747   194.142363 -0.066900
C     10.359878     5.076571   194.855885 -0.170400
C     11.635497     6.102238   194.937491 -0.028400
C     12.196153     5.763944   196.388648 -0.243800
C     12.735827     5.784153   193.873721  0.439600
O     12.873807     6.400839   192.802554 -0.450700
O     -0.341900     5.282649   194.429176 -0.354600
C      0.969195     5.320154   193.869216 -0.055900
C     11.187113     7.624268   194.870015 -0.159600
C     12.081319     8.855687   195.367305 -0.035600
C     -0.533312     8.697763   194.960648 -0.229900
C     11.977638     9.044344   196.905483  0.436800
O     10.839022     9.339350   197.314574 -0.452100
O     13.018144     8.960373   197.625689 -0.352200
C     12.927594     8.985684   199.037254 -0.056800
C     11.475101    10.140247   194.691086 -0.236300
H      0.149056    13.509685   193.762036  0.087100
H     12.811235    12.645043   193.417106  0.087100
H     13.285344    13.133301   195.012629  0.087100
H     12.797304     1.256846   194.657796  0.098700
H     11.484420     0.229054   194.176050  0.098700
H     -0.270660     2.631269   192.737513  0.097400
H      0.160151     1.025761   192.289553  0.097400
H     -0.469299     2.044008   191.093351  0.097400
H     11.663071    12.583034   189.298339  0.107100
H     12.898849    -0.551081   188.435037  0.107100
H     11.117757    -0.176997   188.880320  0.107100
H     12.003413     3.208754   193.312115  0.120800
H     10.516995     2.114137   193.384623  0.120800
H     10.853751     4.006257   189.596544  0.102900
H     12.092155     4.386676   190.757288  0.102900
H     11.937593     2.829159   190.046743  0.102900
H      8.922820     0.272101   188.860467  0.101900
H      7.556308     1.444603   189.116510  0.101900
H      8.086380     0.348462   190.394053  0.101900
H      9.050450     4.891200   191.462537  0.119600
H     10.543048     5.537189   191.983173  0.119600
H      8.019959     6.557733   194.365802  0.105000
H      9.058933     7.200769   193.125374  0.105000
H      7.765008     6.178390   192.831153  0.105000
H      5.166343     3.791144   194.382120  0.108600
H      5.910717     2.557717   193.434118  0.108600
H      6.305150     2.799835   195.103348  0.108600
H     10.751397     4.045064   195.068626  0.119000
H      9.775063     5.379563   195.730188  0.119000
H     13.044902     6.431583   196.578360  0.102400
H     12.521403     4.805529   196.710221  0.102400
H     11.453932     6.072709   197.125249  0.102400
H      1.622542     4.725851   194.532246  0.101200
H      1.388814     6.275919   193.826813  0.101200
H      0.807566     4.901416   192.857419  0.101200
H     10.275688     7.663600   195.501497  0.122000
H     10.851439     7.862045   193.838087  0.122000
H     -0.427662     8.772825   193.868698  0.099800
H     -0.065204     7.779001   195.317440  0.099800
H      0.018866     9.533044   195.315054  0.099800
H     12.284675     9.773209   199.480343  0.101100
H     -0.331751     9.134436   199.520168  0.101100
H     12.588023     7.934178   199.192265  0.101100
H     11.632243    10.124278   193.612945  0.096100
H     10.437939    10.245301   194.887579  0.096100
H     11.948363    11.036030   195.065282  0.096100
C      6.127491     5.523977    47.033329 -0.239000
C      5.775072     4.358511    47.998020 -0.167600
C      4.391798     3.685332    47.763942 -0.029300
C      4.501697     2.253723    48.370600 -0.237800
C      3.307722     4.448351    48.568415  0.439900
O      2.802047     4.060374    49.639300 -0.448400
O      2.833061     5.609943    47.926918 -0.358300
C      1.887214     6.472660    48.671061 -0.065100
C      4.009642     3.624565    46.221258 -0.165100
C      2.711287     2.917778    45.715137 -0.009900
C      1.541523     2.711170    46.690558 -0.246800
C      2.382237     3.669978    44.498936  0.432100
O      3.184586     3.762362    43.514654 -0.452200
O      1.244219     4.319197    44.564092 -0.355800
C      1.021309     5.363543    43.645722 -0.056200
C      3.186950     1.444250    45.252441 -0.171000
C      2.254657     0.352524    44.729792 -0.031000
C      1.106371     0.911697    43.970249 -0.244000
C      3.079472    -0.529757    43.727394  0.435200
O      3.997306    12.979453    44.192447 -0.458900
O      2.600061    13.584982    42.419071 -0.347000
C      3.307361    12.668441    41.567027 -0.066900
C      1.998766    -0.554851    45.964207 -0.170400
C      0.834271    12.596540    46.042406 -0.028400
C      1.042644    12.003394    47.499351 -0.243800
C     -0.494181    13.354292    45.959957  0.439600
O     12.763239    13.142596    45.243576 -0.450700
O     -0.593965     0.036760    46.936447 -0.354600
C     12.407354     0.717237    47.193233 -0.055900
C      0.923964    11.537358    44.867288 -0.159600
C      0.206276    10.053345    44.984857 -0.035600
C      1.135677     9.050264    45.710155 -0.229900
C      0.120313     9.502583    43.533581  0.436800
O      1.112890     9.522871    42.734525 -0.452100
O     13.185422     8.790032    43.278279 -0.352200
C     12.906339     8.262687    41.947363 -0.056800
C     12.976818    10.030889    45.623689 -0.236300
H      6.283335     5.212711    46.007099  0.087100
H      5.340923     6.248506    46.982541  0.087100
H      7.088504     5.978413    47.296748  0.087100
H      6.595701     3.622780    47.950927  0.098700
H      5.792926     4.705174    49.028673  0.098700
H      4.876769     2.310788    49.410871  0.097400
H      5.189606     1.537933    47.798621  0.097400
H      3.588477     1.671132    48.550870  0.097400
H      0.955197     5.948716    48.680958  0.107100
H      1.834009     7.415300    48.173572  0.107100
H      2.177941     6.729768    49.736030  0.107100
H      4.989291     3.204384    45.752421  0.120800
H      3.946062     4.665514    45.942567  0.120800
H      1.236844     3.667716    47.188489  0.102900
H      1.803457     2.088504    47.470289  0.102900
H      0.671759     2.367197    46.277155  0.102900
H      1.311399     5.042042    42.653996  0.101900
H      0.022975     5.864931    43.629531  0.101900
H      1.742248     6.148449    43.899216  0.101900
H      3.825706     1.001141    45.994377  0.119600
H      3.898781     1.441123    44.424374  0.119600
H      0.581840     0.047376    43.472642  0.105000
H      0.251898     1.395663    44.474827  0.105000
H      1.415326     1.564782    43.127883  0.105000
H      2.796791    12.733907    40.668027  0.108600
H      4.366409    12.786232    41.479262  0.108600
H      3.299841    11.654989    41.940380  0.108600
H      2.962794    13.226141    46.372840  0.119000
H      1.831521     0.061854    46.867013  0.119000
H      0.334396    11.388975    47.937328  0.102400
H      1.917423    11.367310    47.325437  0.102400
H      1.280353    12.740229    48.262139  0.102400
H     12.065012     1.293715    46.335907  0.101200
H     11.714831    -0.046297    47.496935  0.101200
H     12.420414     1.326372    48.077973  0.101200
H      2.004831    11.341357    44.669674  0.122000
H      0.534379    12.000516    43.937279  0.122000
H      2.058595     8.861022    45.159637  0.099800
H      1.426419     9.356561    46.702776  0.099800
H      0.592400     8.141070    45.870749  0.099800
H     11.924095     8.669099    41.587062  0.101100
H     12.815690     7.125623    42.076178  0.101100
H     -0.529454     8.540620    41.246543  0.101100
H     12.934194    10.362425    46.664148  0.096100
H     12.302913    10.516862    44.900284  0.096100
H     12.574574     8.976839    45.676184  0.096100
C     11.513813     2.296533   174.264983 -0.239000
C     12.868462     2.938003   174.648530 -0.167600
C     -0.456612     1.931513   175.439899 -0.029300
C     -0.127977     0.673798   174.550268 -0.237800
C     13.045054     1.443445   176.738713  0.439900
O     12.234115     2.194667   177.346852 -0.448400
O     13.290712     0.065720   176.979902 -0.358300
C     12.847816    -0.561119   178.130315 -0.065100
C      0.913386     2.540655   175.803372 -0.165100
C      1.125723     3.668742   176.812748 -0.009900
C      0.415639     4.953344   176.374002 -0.246800
C      0.662265     3.323665   178.298609  0.432100
O      1.000042     2.251964   178.841033 -0.452200
O     -0.041228     4.305748   178.855966 -0.355800
C     13.487411     4.021136   180.112626 -0.056200
C      2.699082     3.896596   177.121763 -0.171000
C      3.836345     4.096845   176.052053 -0.031000
C      3.395137     5.177073   175.048787 -0.244000
C      5.069699     4.613370   176.851118  0.435200
O      5.498914     3.940311   177.834506 -0.458900
O      5.371787     5.940567   176.618198 -0.347000
C      6.590193     6.389957   177.074714 -0.066900
C      4.176266     2.656385   175.366076 -0.170400
C      5.511510     2.569209   174.471371 -0.028400
C      5.989085     4.007070   173.855224 -0.243800
C      6.662908     1.979669   175.349694  0.439600
O      6.549639     0.797106   175.754417 -0.450700
O      7.646848     2.758770   175.772999 -0.354600
C      8.615554     2.406666   176.700249 -0.055900
C      5.439236     1.489736   173.346698 -0.159600
C      4.595298     1.675740   172.011173 -0.035600
C      5.451161     2.251620   170.851302 -0.229900
C      3.337266     2.571303   172.216845  0.436800
O      2.238399     2.178197   172.469970 -0.452100
O      3.431783     3.785465   171.515189 -0.352200
C      2.302636     4.664856   171.482130 -0.056800
C      4.065552     0.266556   171.572527 -0.236300
H     11.708128     1.686598   173.354194  0.087100
H     10.896874     1.755627   175.028919  0.087100
H     10.883511     3.100713   173.889499  0.087100
H     13.444499     3.296785   173.689107  0.098700
H     12.518746     3.749010   175.239815  0.098700
H      0.640762     0.852097   173.788109  0.097400
H     13.219250     0.202663   174.113470  0.097400
H      0.308722    -0.176157   175.063078  0.097400
H     12.360497     0.103393   178.836718  0.107100
H     -0.516600    13.154914   178.627425  0.107100
H     12.230289    12.755769   177.875226  0.107100
H      1.556970     1.702228   176.172924  0.120800
H      1.476661     2.923948   174.959970  0.120800
H     13.521956     4.932269   176.699956  0.102900
H      0.907893     5.769706   176.935614  0.102900
H      0.450396     5.182124   175.303943  0.102900
H     13.315477     4.859986   180.761626  0.101900
H     12.533499     3.662596   179.657042  0.101900
H     -0.169347     3.277919   180.697015  0.101900
H      2.695008     4.845912   177.631965  0.119600
H      3.032165     3.237937   177.936288  0.119600
H      2.758112     5.900647   175.531026  0.105000
H      4.149714     5.784992   174.566149  0.105000
H      2.824505     4.754650   174.236946  0.105000
H      7.296062     5.512323   176.871498  0.108600
H      7.060288     7.199498   176.476504  0.108600
H      6.692244     6.578446   178.147681  0.108600
H      4.091744     1.899573   176.134997  0.119000
H      3.348500     2.451630   174.775058  0.119000
H      6.243510     4.709049   174.621062  0.102400
H      6.887186     3.909265   173.254489  0.102400
H      5.171289     4.441730   173.242744  0.102400
H      8.149636     2.593482   177.681138  0.101200
H      9.475462     3.039511   176.551777  0.101200
H      8.995424     1.415285   176.657835  0.101200
H      6.482418     1.190462   173.116875  0.122000
H      4.948736     0.647351   173.865170  0.122000
H      4.884799     2.489266   169.941380  0.099800
H      6.066246     1.416319   170.524164  0.099800
H      5.993354     3.136790   171.159253  0.099800
H      2.620007     5.700104   171.160741  0.101100
H      1.759762     4.759680   172.400428  0.101100
H      1.634304     4.185939   170.766220  0.101100
H      3.398179     0.474723   170.724579  0.096100
H      4.854801    -0.299599   171.130836  0.096100
H      3.612642    -0.364418   172.314456  0.096100
C      3.157335     8.355440   252.156675 -0.239000
C      3.727682     7.146538   251.425209 -0.167600
C      4.570081     7.485414   250.171433 -0.029300
C      3.912537     8.527114   249.358983 -0.237800
C      4.834193     6.302148   249.216637  0.439900
O      5.798104     6.336648   248.439325 -0.448400
O      4.050649     5.213437   249.362368 -0.358300
C      4.166990     4.122783   248.481971 -0.065100
C      5.993665     8.173167   250.694613 -0.165100
C      7.038501     7.466353   251.646924 -0.009900
C      7.091365     5.957099   251.297381 -0.246800
C      6.538804     7.770569   253.052986  0.432100
O      6.393499     8.928086   253.436100 -0.452200
O      6.205685     6.677119   253.746764 -0.355800
C      5.777307     6.811583   255.073741 -0.056200
C      8.425474     8.127129   251.318520 -0.171000
C      9.750464     8.079493   252.201681 -0.031000
C     10.872661     8.424140   251.139038 -0.244000
C      9.782570     9.195040   253.256791  0.435200
O     10.611809    10.152893   253.283467 -0.458900
O      9.097148     8.790249   254.333623 -0.347000
C      9.131342     9.610011   255.517566 -0.066900
C      9.975833     6.642186   252.848669 -0.170400
C     11.227353     6.176008   253.679225 -0.028400
C     12.485091     6.949027   253.331804 -0.243800
C     11.121381     6.345861   255.137835  0.439600
O     12.085296     6.337179   255.882329 -0.450700
O      9.942221     6.268399   255.611981 -0.354600
C      9.703567     6.450563   257.014488 -0.055900
C     11.623397     4.625163   253.417717 -0.159600
C     10.760267     3.462929   253.810521 -0.035600
C      9.252817     3.670944   253.262311 -0.229900
C     10.792235     3.265085   255.375282  0.436800
O      9.767803     3.102098   255.996182 -0.452100
O     12.017437     3.189977   255.859090 -0.352200
C     12.323524     3.015142   257.211633 -0.056800
C     11.404890     2.199206   253.251169 -0.236300
H      2.590360     9.132721   251.526050  0.087100
H      3.819680     8.891836   252.781801  0.087100
H      2.422620     7.925044   252.831882  0.087100
H      2.924747     6.534811   250.986169  0.098700
H      4.200415     6.394903   252.159856  0.098700
H      3.957435     9.533281   249.776082  0.097400
H      2.820702     8.418192   249.310296  0.097400
H      4.428077     8.658656   248.395178  0.097400
H      5.213078     3.934510   248.297750  0.107100
H      3.609409     4.203037   247.618168  0.107100
H      3.809371     3.154876   248.986857  0.107100
H      6.558769     8.419814   249.823972  0.120800
H      5.669766     9.135142   251.088671  0.120800
H      6.176834     5.397978   251.563593  0.102900
H      7.301705     5.723057   250.271413  0.102900
H      7.816509     5.441833   251.792515  0.102900
H      6.342825     7.560456   255.663523  0.101900
H      4.785745     7.028500   255.100180  0.101900
H      5.767035     5.790451   255.482257  0.101900
H      8.129762     9.201449   251.213797  0.119600
H      8.670143     7.825652   250.335626  0.119600
H     11.932800     8.519596   251.474761  0.105000
H     10.685940     9.311622   250.444956  0.105000
H     10.957886     7.575841   250.478391  0.105000
H     10.143756     9.880994   255.815575  0.108600
H      8.569981    10.599292   255.371338  0.108600
H      8.583322     9.039858   256.339592  0.108600
H      9.204657     6.288198   253.411669  0.119000
H     10.133737     5.938948   251.995903  0.119000
H     12.307916     8.052262   253.544763  0.102400
H     12.753077     6.695865   252.357307  0.102400
H     13.378634     6.740847   253.851782  0.102400
H     10.143157     5.591449   257.528119  0.101200
H     10.062539     7.388476   257.285703  0.101200
H      8.669781     6.347244   257.227498  0.101200
H     11.789296     4.506455   252.376306  0.122000
H     12.680654     4.612201   253.825333  0.122000
H      8.675181     2.779190   253.656079  0.099800
H      9.180335     3.695537   252.148612  0.099800
H      8.708467     4.474361   253.625637  0.099800
H     13.388242     2.930746   257.375129  0.101100
H     11.877826     2.054733   257.558947  0.101100
H     11.959667     3.867075   257.812041  0.101100
H     12.446358     2.089879   253.675919  0.096100
H     11.550187     2.244672   252.139859  0.096100
H     10.828039     1.279687   253.479071  0.096100
C      6.088744    10.128655   180.415060 -0.239000
C      5.426247    11.559329   180.485455 -0.167600
C      4.151965    11.713827   181.357655 -0.029300
C      4.587936    11.571955   182.826056 -0.237800
C      3.567805    13.186413   181.207316  0.439900
O      3.322957    -0.546765   180.081136 -0.448400
O      3.769520    -0.098148   182.282217 -0.358300
C      3.319347     1.259221   182.079036 -0.065100
C      2.997140    10.756576   180.760467 -0.165100
C      1.706273    10.357922   181.672619 -0.009900
C      2.066991     9.342039   182.807655 -0.246800
C      1.081174    11.709453   182.191849  0.432100
O      0.226765    12.268961   181.482662 -0.452200
O      1.358907    11.999361   183.508573 -0.355800
C      0.659596    13.050495   184.150440 -0.056200
C      0.738567     9.689518   180.680539 -0.171000
C      1.090680     8.409152   179.781068 -0.031000
C      2.026246     8.695431   178.572556 -0.244000
C      1.640322     7.199387   180.590135  0.435200
O      0.878297     6.756899   181.454703 -0.458900
O      2.859725     6.685835   180.190475 -0.347000
C      3.225198     5.430330   180.850324 -0.066900
C     -0.311040     7.936995   179.093733 -0.170400
C     12.810682     8.818886   178.310300 -0.028400
C     13.441725     9.851548   177.293303 -0.243800
C     11.869303     7.936396   177.432336  0.439600
O     10.942354     8.420876   176.782511 -0.450700
O     12.068099     6.672793   177.544233 -0.354600
C     11.038923     5.785810   177.226028 -0.055900
C     11.938362     9.479386   179.414176 -0.159600
C     10.858078     8.798229   180.375042 -0.035600
C      9.586831     8.290928   179.611889 -0.229900
C     11.431899     7.638551   181.212619  0.436800
O     11.123780     6.502084   180.995595 -0.452100
O     12.185748     8.047091   182.155390 -0.352200
C     12.691819     7.095051   183.048882 -0.056800
C     10.247564     9.870007   181.393443 -0.236300
H      7.068139    10.222855   179.914058  0.087100
H      5.490300     9.343532   179.883338  0.087100
H      6.304088     9.802042   181.446139  0.087100
H      5.161392    11.876171   179.459110  0.098700
H      6.247217    12.225701   180.866640  0.098700
H      3.785041    11.899838   183.490479  0.097400
H      4.742309    10.562095   183.132683  0.097400
H      5.492054    12.121238   183.086840  0.097400
H      2.231874     1.423533   181.948751  0.107100
H      3.738138     1.783169   181.189308  0.107100
H      3.649796     1.655329   183.018455  0.107100
H      3.467783     9.801442   180.569272  0.120800
H      2.714831    11.199065   179.843178  0.120800
H      2.729972     8.560510   182.500300  0.102900
H      1.123687     8.818812   183.051537  0.102900
H      2.655110     9.741081   183.642689  0.102900
H     -0.384176    12.752061   184.322750  0.101900
H      0.776905    -0.146922   183.596549  0.101900
H      1.257875    13.204700   185.021299  0.101900
H      0.476641    10.500754   180.054321  0.119600
H     -0.162884     9.412271   181.211474  0.119600
H      3.101684     8.722230   178.792855  0.105000
H      1.864520     7.954091   177.821665  0.105000
H      1.779972     9.609289   178.052259  0.105000
H      3.900532     4.812336   180.177265  0.108600
H      2.248244     4.821757   180.877257  0.108600
H      3.610325     5.618092   181.879481  0.108600
H     13.353624     7.327955   179.816606  0.119000
H      0.005225     7.074801   178.468707  0.119000
H     12.737728    10.463027   176.881523  0.102400
H     -0.026151    10.550179   177.790425  0.102400
H     -0.265467     9.424297   176.436063  0.102400
H     11.023750     5.813041   176.119917  0.101200
H      9.998177     5.943049   177.577205  0.101200
H     11.363352     4.780548   177.572147  0.101200
H     11.389619    10.342760   179.024269  0.122000
H     12.513987    10.090856   180.106600  0.122000
H      9.791538     7.343150   179.236916  0.099800
H      8.713825     8.029409   180.177707  0.099800
H      9.242232     8.946433   178.864207  0.099800
H     13.580255     7.538855   183.413909  0.101100
H     11.998218     6.919060   183.867954  0.101100
H     12.895644     6.080881   182.632606  0.101100
H      9.542955     9.441363   182.097207  0.096100
H     10.977970    10.296348   182.018435  0.096100
H      9.746404    10.744980   180.878144  0.096100
C      4.168935     9.192997    99.177358 -0.239000
C      4.901191     9.372937    97.812690 -0.167600
C      4.463567    10.564077    96.919000 -0.029300
C      4.883646    11.878585    97.605196 -0.237800
C      5.344128    10.471027    95.601927  0.439900
O      5.219358    11.301795    94.689846 -0.448400
O      6.136192     9.345595    95.521244 -0.358300
C      6.645973     8.927746    94.274875 -0.065100
C      2.874132    10.662082    96.671401 -0.165100
C      2.046745     9.782177    95.673385 -0.009900
C      2.180559    10.529013    94.331992 -0.246800
C      2.681412     8.383082    95.500834  0.432100
O      2.663927     7.599019    96.462555 -0.452200
O      3.278380     8.109525    94.265007 -0.355800
C      3.701510     6.795330    93.936613 -0.056200
C      0.570099     9.529273    96.124915 -0.171000
C     -0.406373    10.654944    96.612252 -0.031000
C     -0.007108    11.033644    98.033569 -0.244000
C     -0.268338    11.872000    95.727563  0.435200
O      0.143142    12.976950    96.113034 -0.458900
O     13.513623    11.603972    94.457530 -0.347000
C     13.486662    12.686756    93.500562 -0.066900
C     12.294996    10.142444    96.658449 -0.170400
C     11.024428    10.930682    97.091860 -0.028400
C      9.874515    10.259364    96.242692 -0.243800
C     10.715609    10.655920    98.576152  0.439600
O     10.149931     9.638867    98.927029 -0.450700
O     10.901855    11.699295    99.356401 -0.354600
C     10.569127    11.604735   100.745850 -0.055900
C     11.091811    12.497230    96.812807 -0.159600
C      9.782177    13.380048    96.671524 -0.035600
C      8.908763    13.207542    97.910409 -0.229900
C      8.916517    13.080662    95.408854  0.436800
O      7.712129    13.358459    95.283188 -0.452100
O      9.727627    12.830769    94.379901 -0.352200
C      9.039134    12.593166    93.112994 -0.056800
C     10.113505     0.688423    96.469375 -0.236300
H      4.445489     8.303940    99.635829  0.087100
H      3.069406     9.047454    99.068662  0.087100
H      4.183571     9.998398    99.928591  0.087100
H      5.936164     9.469171    98.053425  0.098700
H      4.769103     8.493794    97.284284  0.098700
H      4.065806    12.191060    98.282614  0.097400
H      5.030569    12.683134    96.926439  0.097400
H      5.742895    11.780091    98.238164  0.097400
H      5.806718     8.453782    93.706065  0.107100
H      7.083883     9.829811    93.714152  0.107100
H      7.323250     8.038942    94.380108  0.107100
H      2.684291    11.664198    96.673142  0.120800
H      2.475826    10.401346    97.689998  0.120800
H      3.178286    10.448987    93.900985  0.102900
H      1.566910    10.081959    93.574221  0.102900
H      1.857895    11.604160    94.365165  0.102900
H      2.903619     6.019842    93.887395  0.101900
H      4.399251     6.494924    94.603394  0.101900
H      4.341868     6.719345    93.070558  0.101900
H      0.433336     8.769895    96.837545  0.119600
H      0.161589     8.954850    95.221792  0.119600
H      0.402543    10.203268    98.563086  0.105000
H      0.789375    11.764045    98.116240  0.105000
H     13.376323    11.528388    98.589411  0.105000
H     12.728300    12.380218    92.747361  0.108600
H     13.150137    -0.538855    93.952922  0.108600
H      0.150180    12.789239    92.867174  0.108600
H     12.160700     9.723749    95.652070  0.119000
H     12.289485     9.240186    97.270535  0.119000
H      9.879615     9.178822    96.344405  0.102400
H      9.874141    10.394884    95.118005  0.102400
H      8.885483    10.582667    96.549644  0.102400
H     10.555600    12.576851   101.261665  0.101200
H     11.265846    10.950372   101.221211  0.101200
H      9.553108    11.306954   100.838790  0.101200
H     11.655724    12.709375    95.905776  0.122000
H     11.658451    12.920261    97.654891  0.122000
H      7.972349    -0.422426    97.745402  0.099800
H      9.461098    -0.466347    98.739020  0.099800
H      8.630639    12.140937    98.097117  0.099800
H      8.747039    -0.589669    92.801594  0.101100
H      9.736703    12.194242    92.334766  0.101100
H      8.134296    11.979503    93.213765  0.101100
H     10.601527     1.098685    97.335584  0.096100
H      9.265586     1.246762    96.117498  0.096100
H     10.835132     0.836540    95.654908  0.096100
C      9.843703     2.839703   119.607733 -0.239000
C      9.869921     1.451450   120.304319 -0.167600
C     11.218368     0.688873   120.180686 -0.029300
C     12.273922     1.798906   120.466833 -0.237800
C     11.465431     0.095679   118.813618  0.439900
O     12.573700    -0.285625   118.573101 -0.448400
O     10.423066     0.299152   117.942275 -0.358300
C     10.445570    -0.365879   116.702534 -0.065100
C     11.360690    -0.358973   121.348425 -0.165100
C     10.641656    12.441641   121.274073 -0.009900
C      9.073023    12.642974   121.143271 -0.246800
C     11.176507    11.581432   120.109826  0.432100
O     12.363511    11.354735   120.065249 -0.452200
O     10.239317    11.172380   119.212063 -0.355800
C     10.675768    10.697955   118.019340 -0.056200
C     11.024372    11.804627   122.673694 -0.171000
C     10.300246    10.691791   123.484956 -0.031000
C     11.254637     9.669426   124.254917 -0.244000
C      9.452678     9.785944   122.521684  0.435200
O      8.234676     9.482653   122.683697 -0.458900
O     10.221764     9.345028   121.581163 -0.347000
C      9.762253     8.506007   120.562295 -0.066900
C      9.250588    11.329559   124.517090 -0.170400
C      9.577423    11.846290   125.907509 -0.028400
C      9.764494    10.621740   126.921168 -0.243800
C     10.713907    12.905527   125.885611  0.439600
O     11.789654    12.601870   126.324616 -0.450700
O     10.384709    -0.109973   125.290970 -0.354600
C     11.332400     0.834661   125.034564 -0.055900
C      8.230495    12.526866   126.327682 -0.159600
C      7.996718    13.346631   127.695241 -0.035600
C      7.890411    12.406272   128.956690 -0.229900
C      6.608062    -0.129881   127.566779  0.436800
O      5.715572    -0.478751   128.377215 -0.452100
O      6.472998     0.745120   126.559713 -0.352200
C      5.284845     1.527298   126.611871 -0.056800
C      8.981890     0.314095   128.068889 -0.236300
H     10.348822     3.604087   120.143190  0.087100
H      8.857738     3.270372   119.308267  0.087100
H     10.301215     2.685058   118.632318  0.087100
H      9.081162     0.868711   119.886373  0.098700
H      9.646541     1.631415   121.404573  0.098700
H     13.245920     1.361407   120.474501  0.097400
H     12.390819     2.718628   119.758176  0.097400
H     11.955296     2.132585   121.454666  0.097400
H     10.070544     0.198676   115.845853  0.107100
H      9.835052    12.922134   116.687832  0.107100
H     11.427524    13.515268   116.315674  0.107100
H     12.335036    -0.583408   121.518508  0.120800
H     11.065098     0.193726   122.272448  0.120800
H      8.515327    11.748904   121.313471  0.102900
H      8.758345    13.495712   121.730668  0.102900
H      8.855728    13.012187   120.095949  0.102900
H      9.914288    10.855619   117.320337  0.101900
H     11.060300     9.629777   118.148554  0.101900
H     11.499100    11.265023   117.541559  0.101900
H     11.211472    12.626402   123.375466  0.119600
H     12.096180    11.434013   122.528331  0.119600
H     10.766284     8.729239   124.633080  0.105000
H     11.983378     9.188671   123.523603  0.105000
H     11.872929    10.226683   124.954136  0.105000
H      9.376796     7.528239   120.989343  0.108600
H      8.986795     8.976893   119.961750  0.108600
H     10.632403     8.210537   119.979013  0.108600
H      8.520328    10.517603   124.662547  0.119000
H      8.677671    12.171997   124.105342  0.119000
H      8.782413    10.120354   126.947102  0.102400
H     10.026434    10.856436   127.985511  0.102400
H     10.601755     9.977931   126.599607  0.102400
H     12.073914     0.543256   124.269576  0.101200
H     11.102890     1.859543   124.715238  0.101200
H     11.893256     0.946435   126.006106  0.101200
H      7.366011    11.888624   126.016586  0.122000
H      8.066472    13.447352   125.677110  0.122000
H      8.903905    12.132480   129.278627  0.099800
H      7.476743    11.452970   128.728905  0.099800
H      7.444603    12.831737   129.887450  0.099800
H      4.397626     0.907327   126.526854  0.101100
H      5.208620     2.257131   127.412231  0.101100
H      5.177623     2.110515   125.698515  0.101100
H      9.932509    -0.130111   127.961036  0.096100
H      8.927212     0.745255   129.081716  0.096100
H      8.762600     1.169829   127.404922  0.096100
C     12.746304     6.687039   107.217574 -0.239000
C     11.772925     7.720529   106.595338 -0.167600
C     10.263165     7.417281   106.827693 -0.029300
C     10.118793     5.872060   106.636210 -0.237800
C      9.895040     7.739894   108.282002  0.439900
O     10.682347     8.227576   109.130971 -0.448400
O      8.612317     7.386655   108.589753 -0.358300
C      8.084598     7.677002   109.806132 -0.065100
C      9.507019     8.191569   105.744394 -0.165100
C      9.643831     9.783415   105.685086 -0.009900
C      9.896828    10.528873   107.039605 -0.246800
C     10.770500    10.205014   104.746279  0.432100
O     10.773971     9.883854   103.540781 -0.452200
O     11.543084    11.079001   105.273115 -0.355800
C     12.474558    11.766104   104.417196 -0.056200
C      8.359676    10.400589   104.965649 -0.171000
C      7.115260    10.922041   105.779331 -0.031000
C      6.651139     9.875196   106.822334 -0.244000
C      7.397112    12.291189   106.418372  0.435200
O      8.146876    13.074290   105.799727 -0.458900
O      6.856538    12.489181   107.615612 -0.347000
C      6.735103    -0.327153   107.983031 -0.066900
C      5.888216    10.944647   104.713324 -0.170400
C      4.893100    12.072781   104.622103 -0.028400
C      4.114852    12.183779   105.974440 -0.243800
C      5.589513    13.422978   104.350254  0.439600
O      5.423553     0.219879   105.063495 -0.450700
O      6.347615    13.380971   103.230172 -0.354600
C      7.241124     0.272484   102.853266 -0.055900
C      3.871011    11.766610   103.473137 -0.159600
C      2.898649    12.812503   102.888421 -0.035600
C      3.431606    -0.309616   101.873070 -0.229900
C      2.021086    13.447917   103.967171  0.436800
O      1.358136    12.795996   104.726203 -0.452100
O      2.492060     0.531532   104.374581 -0.352200
C      2.281952     1.027590   105.665823 -0.056800
C      1.982934    11.910959   102.009380 -0.236300
H     12.637044     6.575037   108.298991  0.087100
H     12.813656     5.762548   106.749730  0.087100
H     -0.454578     7.096826   106.962935  0.087100
H     12.059875     7.688879   105.468221  0.098700
H     12.038433     8.652012   106.960203  0.098700
H     10.778336     5.465013   105.868655  0.097400
H     10.178514     5.223676   107.509943  0.097400
H      9.164630     5.545185   106.348263  0.097400
H      7.146069     7.123620   109.954524  0.107100
H      7.914370     8.787545   109.819212  0.107100
H      8.690337     7.359670   110.628076  0.107100
H      8.488616     7.904913   105.963854  0.120800
H      9.739958     7.697720   104.804148  0.120800
H      9.189307    10.465007   107.797508  0.102900
H     10.800573    10.173481   107.464122  0.102900
H      9.977948    11.634842   106.912304  0.102900
H     12.444659    12.825789   104.684483  0.101900
H     13.422236    11.219069   104.522490  0.101900
H     12.127289    11.856618   103.375700  0.101900
H      8.682858    11.235045   104.357725  0.119600
H      7.994492     9.685210   104.223349  0.119600
H      6.566706     8.833802   106.437370  0.105000
H      5.715376    10.142467   107.342581  0.105000
H      7.346459     9.643595   107.614783  0.105000
H      7.603980     0.261321   107.822400  0.108600
H      5.800369    -0.000508   107.653265  0.108600
H      6.631179    -0.178881   109.085420  0.108600
H      5.326000    10.012540   104.722922  0.119000
H      6.336018    10.984371   103.760620  0.119000
H      4.645827    12.229804   106.887149  0.102400
H      3.461210    11.288791   105.951273  0.102400
H      3.442838    12.984936   105.909554  0.102400
H      8.238457    -0.107338   102.647971  0.101200
H      6.863523     0.566202   101.853260  0.101200
H      7.293819     1.114224   103.584349  0.101200
H      4.386148    11.476699   102.605563  0.122000
H      3.209136    10.918166   103.777539  0.122000
H      2.748134     0.456120   101.711885  0.099800
H      3.704997    13.520743   100.853846  0.099800
H      4.264518     0.156635   102.272228  0.099800
H      3.212835     1.285071   106.165294  0.101100
H      1.664508     1.914272   105.679783  0.101100
H      1.667892     0.380952   106.328711  0.101100
H      2.406453    11.493030   101.110324  0.096100
H      1.450462    11.183704   102.584204  0.096100
H      1.180027    12.506784   101.629302  0.096100
C      5.988110     2.963966   106.895693 -0.239000
C      5.793858     3.269403   108.407684 -0.167600
C      4.343236     3.298461   109.104800 -0.029300
C      4.530329     3.868043   110.623152 -0.237800
C      3.397127     4.277743   108.316968  0.439900
O      3.178511     4.158119   107.121260 -0.448400
O      2.851205     5.150942   109.104241 -0.358300
C      1.921004     6.160600   108.654860 -0.065100
C      3.786391     1.813666   109.139229 -0.165100
C      2.497986     1.341337   109.872686 -0.009900
C      2.197749    -0.127695   109.642697 -0.246800
C      2.761122     1.490254   111.409504  0.432100
O      3.676275     0.821113   111.891983 -0.452200
O      2.036124     2.466174   112.099946 -0.355800
C      2.211026     2.416378   113.562898 -0.056200
C      1.271102     2.193604   109.401337 -0.171000
C     -0.238871     1.836714   109.469322 -0.031000
C     13.329031     3.161211   108.971708 -0.244000
C     13.537504     0.789377   108.410987  0.435200
O     13.416219     1.164398   107.205237 -0.458900
O     13.379503    -0.476902   108.896887 -0.347000
C     13.004960    12.725916   107.977054 -0.066900
C     13.501282     1.490556   110.931172 -0.170400
C     12.014874     1.367142   111.407418 -0.028400
C     12.064990     1.114382   112.952802 -0.243800
C     11.304074     2.735670   111.316202  0.439600
O     11.426429     3.642407   112.114351 -0.450700
O     10.312474     2.766767   110.362086 -0.354600
C      9.421814     3.823149   110.236980 -0.055900
C     11.310928     0.189039   110.747218 -0.159600
C      9.907235    -0.417470   111.162712 -0.035600
C      9.392127    12.703481   110.205482 -0.229900
C     10.074722    12.970423   112.507797  0.436800
O      9.205020    12.856454   113.342986 -0.452100
O     11.214769    12.281121   112.631105 -0.352200
C     11.416503    11.417794   113.722879 -0.056800
C      8.777745     0.573970   111.351565 -0.236300
H      6.945711     2.411398   106.645386  0.087100
H      5.225735     2.354128   106.393124  0.087100
H      5.953182     3.941781   106.358377  0.087100
H      6.402577     2.534850   108.870821  0.098700
H      6.299175     4.216879   108.645411  0.098700
H      5.178237     3.389508   111.316364  0.097400
H      4.925428     4.867874   110.513362  0.097400
H      3.588539     3.990771   111.083150  0.097400
H      1.091958     6.205570   109.376321  0.107100
H      1.518349     5.968965   107.663716  0.107100
H      2.440611     7.117803   108.618161  0.107100
H      4.528696     1.196441   109.589021  0.120800
H      3.731262     1.541886   108.127149  0.120800
H      1.953595    -0.324608   108.577932  0.102900
H      1.420524    13.587998   110.162964  0.102900
H      3.135228    -0.582687   109.746706  0.102900
H      3.081228     3.048443   113.841159  0.101900
H      1.277454     2.876269   113.958259  0.101900
H      2.373515     1.409168   113.934705  0.101900
H      1.374765     3.137917   109.926762  0.119600
H      1.457392     2.344787   108.302447  0.119600
H     -0.387720     3.612288   108.059158  0.105000
H     12.282456     3.164308   108.791518  0.105000
H     13.510361     3.905406   109.727636  0.105000
H     12.841185    11.826399   108.598243  0.108600
H     12.115706    12.983258   107.461237  0.108600
H     -0.383809    12.455751   107.209601  0.108600
H     -0.037247     0.646326   111.155193  0.119000
H     -0.315351     2.290807   111.560554  0.119000
H     12.586094     1.982547   113.417802  0.102400
H     12.694262     0.283161   113.260515  0.102400
H     11.164079     0.976181   113.494579  0.102400
H      9.332791     4.341976   111.205054  0.101200
H      9.778267     4.433667   109.422009  0.101200
H      8.439323     3.462367   109.844711  0.101200
H     11.980913    13.555378   110.713993  0.122000
H     11.186489     0.436687   109.703505  0.122000
H     10.164820    11.883919   110.253168  0.099800
H      8.426911    12.264928   110.582982  0.099800
H      9.215813    13.029565   109.074207  0.099800
H     11.025114    10.435312   113.652722  0.101100
H     12.491081    11.176536   113.769505  0.101100
H     11.224468    11.957077   114.633451  0.101100
H      8.553754     0.915450   110.360013  0.096100
H      9.019037     1.357357   112.047198  0.096100
H      7.866847     0.140062   111.822076  0.096100
C      5.088017     6.276660    17.224370 -0.239000
C      4.067196     7.438004    17.040553 -0.167600
C      4.636428     8.845967    16.548216 -0.029300
C      5.657249     9.437818    17.561571 -0.237800
C      5.359444     8.619764    15.144744  0.439900
O      5.023100     7.807993    14.285339 -0.448400
O      6.461145     9.375760    15.027341 -0.358300
C      7.245109     9.270645    13.890178 -0.065100
C      3.476948     9.790697    16.143339 -0.165100
C      2.565387    10.591433    17.120769 -0.009900
C      2.118173     9.709446    18.320464 -0.246800
C      3.435860    11.815095    17.596459  0.432100
O      3.668508    11.988308    18.815252 -0.452200
O      3.959657    12.522783    16.620619 -0.355800
C      4.817205    13.552875    16.996347 -0.056200
C      1.290279    11.050494    16.349250 -0.171000
C      0.064603    11.805347    17.017595 -0.031000
C     13.205362    10.703268    17.472417 -0.244000
C      0.626809    12.706829    18.180548  0.435200
O      1.294163    -0.443648    17.990593 -0.458900
O      0.039611    12.371700    19.408554 -0.347000
C     -0.082351    13.441933    20.378857 -0.066900
C     13.506436    12.710632    15.967097 -0.170400
C     12.093475    13.297172    16.312396 -0.028400
C     11.855163    -0.367836    17.775578 -0.243800
C     10.993321    12.248220    15.948921  0.439600
O     11.103656    11.329355    15.189731 -0.450700
O      9.790541    12.493761    16.542041 -0.354600
C      8.593360    11.664514    16.212841 -0.055900
C     11.799598     0.316753    15.409202 -0.159600
C     11.594269     0.204270    13.865145 -0.035600
C     12.494543    13.509516    13.038033 -0.229900
C     10.126105    -0.096798    13.459247  0.436800
O      9.877070    13.123518    12.761244 -0.452100
O      9.228891     0.906114    13.751938 -0.352200
C      7.880461     0.571985    13.565394 -0.056800
C     11.914920     1.629972    13.348885 -0.236300
H      5.865098     6.360989    16.442639  0.087100
H      4.672249     5.288215    17.120608  0.087100
H      5.702889     6.436889    18.064199  0.087100
H      3.532818     7.408688    17.940126  0.098700
H      3.439958     6.982665    16.307751  0.098700
H      6.446518     8.743038    17.734772  0.097400
H      5.190685     9.663061    18.500935  0.097400
H      6.156568    10.390495    17.283431  0.097400
H      7.665543     8.233384    13.787938  0.107100
H      8.160752     9.856939    13.887312  0.107100
H      6.822138     9.436092    12.860638  0.107100
H      2.878660     9.174491    15.500886  0.120800
H      3.830158    10.521293    15.427910  0.120800
H      1.692349    10.332438    19.129515  0.102900
H      1.494127     8.885650    17.942891  0.102900
H      2.978504     9.176938    18.888056  0.102900
H      5.045428    -0.040360    16.088909  0.101900
H      5.553323    13.281831    17.724271  0.101900
H      4.202550     0.121367    17.511980  0.101900
H      1.715009    11.682928    15.539436  0.119600
H      0.908893    10.144494    15.814799  0.119600
H     12.366281    11.157607    17.907055  0.105000
H     13.593946     9.953794    18.189573  0.105000
H     12.882551    10.203187    16.577076  0.105000
H      0.234649     0.270656    20.083969  0.108600
H      0.418448    13.314810    21.328340  0.108600
H     13.065564    -0.571913    20.589637  0.108600
H     13.558643    12.200079    14.940656  0.119000
H     -0.086907    13.563235    15.751223  0.119000
H     12.578632     0.374644    18.060114  0.102400
H     11.781653    13.106024    18.588620  0.102400
H     10.945129     0.291220    17.708092  0.102400
H      7.836481    12.104753    16.834382  0.101200
H      8.776080    10.628145    16.553734  0.101200
H      8.244894    11.795016    15.146663  0.101200
H     12.613921     1.017027    15.650156  0.122000
H     10.924651     0.862329    15.694833  0.122000
H     12.585848    12.401677    13.193027  0.099800
H     13.535913    -0.449537    13.069213  0.099800
H     12.178150    -0.450562    11.991421  0.099800
H      7.460243     0.437875    12.559165  0.101100
H      7.340633     1.423003    14.001432  0.101100
H      7.671677    -0.318883    14.219667  0.101100
H     11.392221     2.423415    13.918636  0.096100
H     11.757043     1.646515    12.269409  0.096100
H     12.963143     1.803931    13.345533  0.096100
C     11.638010     7.596545   158.729169 -0.239000
C     10.497392     8.482528   158.216993 -0.167600
C      9.898843     9.497145   159.232268 -0.029300
C     10.946279    10.550329   159.744041 -0.237800
C      8.843473    10.273664   158.405100  0.439900
O      7.798975     9.723010   158.010873 -0.448400
O      9.049129    11.596020   158.159955 -0.358300
C      8.065421    12.384525   157.598600 -0.065100
C      9.206996     8.732444   160.375004 -0.165100
C      8.513670     9.387378   161.641154 -0.009900
C      7.723388    10.655780   161.101869 -0.246800
C      9.593870     9.808462   162.644317  0.432100
O      9.713659    10.959921   163.064757 -0.452200
O     10.358937     8.692556   162.954634 -0.355800
C     11.234348     8.664335   164.066300 -0.056200
C      7.550494     8.349998   162.351998 -0.171000
C      6.433139     8.926046   163.308197 -0.031000
C      6.896124     9.974818   164.379267 -0.244000
C      5.207293     9.531201   162.503188  0.435200
O      4.350710    10.275329   163.084547 -0.458900
O      5.114972     8.926008   161.305571 -0.347000
C      4.237815     9.611694   160.369507 -0.066900
C      5.702006     7.780724   164.071629 -0.170400
C      6.340342     6.974742   165.331606 -0.028400
C      5.743983     7.649651   166.621800 -0.243800
C      7.867034     7.177461   165.465152  0.439600
O      8.376802     7.906492   166.281013 -0.450700
O      8.494878     6.122007   164.892885 -0.354600
C      9.610585     5.386117   165.376663 -0.055900
C      5.969859     5.429901   165.352608 -0.159600
C      4.448657     5.004357   165.573496 -0.035600
C      3.943566     4.853161   167.020353 -0.229900
C      4.338285     3.586869   164.910122  0.436800
O      5.002910     2.688679   165.396133 -0.452100
O      3.579235     3.492264   163.837850 -0.352200
C      3.338122     2.219063   163.245248 -0.056800
C      3.408532     5.876395   164.824308 -0.236300
H     12.150448     7.119104   157.916188  0.087100
H     12.298510     8.074332   159.479294  0.087100
H     11.056418     6.870687   159.292901  0.087100
H     10.913940     9.062371   157.378577  0.098700
H      9.644736     8.020210   157.676444  0.098700
H     11.386066    11.142138   158.982891  0.097400
H     11.682858    10.278398   160.414581  0.097400
H     10.490023    11.265491   160.359711  0.097400
H      7.308237    11.971195   157.028588  0.107100
H      7.508434    12.935163   158.348520  0.107100
H      8.627713    13.150230   157.056906  0.107100
H      9.844022     7.954896   160.801496  0.120800
H      8.430568     8.029123   159.858686  0.120800
H      7.092382    11.231271   161.839946  0.102900
H      6.997022    10.481040   160.254688  0.102900
H      8.450094    11.337868   160.644939  0.102900
H     11.211863     9.635528   164.475998  0.101900
H     12.252289     8.491097   163.635015  0.101900
H     10.947571     7.877239   164.727189  0.101900
H      8.175594     7.682064   162.940134  0.119600
H      7.123610     7.681582   161.613948  0.119600
H      7.851117     9.629842   164.813320  0.105000
H      6.024023    10.167580   165.025298  0.105000
H      7.093661    11.009978   164.077556  0.105000
H      4.336829     9.002325   159.416053  0.108600
H      4.480561    10.603978   160.258511  0.108600
H      3.241873     9.673204   160.847336  0.108600
H      5.345856     7.075206   163.362199  0.119000
H      4.775332     8.282711   164.390101  0.119000
H      6.201975     7.273497   167.557362  0.102400
H      4.722870     7.544731   166.859696  0.102400
H      6.139598     8.674557   166.681549  0.102400
H     10.488224     5.525774   164.834306  0.101200
H      9.413097     4.323867   165.457406  0.101200
H      9.855139     5.722104   166.416666  0.101200
H      6.399857     4.987491   164.485906  0.122000
H      6.543661     4.881686   166.109698  0.122000
H      2.995076     4.257331   166.910663  0.099800
H      3.638454     5.704957   167.557855  0.099800
H      4.580345     4.317921   167.644792  0.099800
H      2.509304     1.700912   163.794738  0.101100
H      3.090159     2.296180   162.224568  0.101100
H      4.278459     1.651480   163.321496  0.101100
H      2.462045     5.419127   165.018287  0.096100
H      3.470233     5.966803   163.745842  0.096100
H      3.358935     6.850990   165.316228  0.096100
C      3.007744    11.792677   248.199209 -0.239000
C      1.812508    11.901396   249.101374 -0.167600
C      1.640065    13.254323   249.918892 -0.029300
C      1.010018     0.077746   248.871734 -0.237800
C      0.611237    13.054518   251.034720  0.439900
O      0.033598    -0.253853   251.575696 -0.448400
O      0.250077    11.766309   251.191576 -0.358300
C     -0.425641    11.292358   252.398745 -0.065100
C      2.989735    -0.340885   250.478048 -0.165100
C      3.526200    -0.593345   252.004401 -0.009900
C      3.491027    12.078856   252.348610 -0.246800
C      4.992882    -0.003944   252.081756  0.432100
O      5.129868     1.093934   251.566303 -0.452200
O      5.924967    13.335361   252.721977 -0.355800
C      7.210316    -0.439658   252.936425 -0.056200
C      2.562648     0.173586   253.001935 -0.171000
C      3.039461     0.806365   254.352166 -0.031000
C      1.813679     1.281085   255.122736 -0.244000
C      3.867375     2.023386   254.097847  0.435200
O      3.512907     2.935117   253.314013 -0.458900
O      5.100693     2.041032   254.567005 -0.347000
C      5.933987     3.073463   254.265174 -0.066900
C      3.809976    -0.279362   255.235681 -0.170400
C      4.043251    -0.341966   256.810396 -0.028400
C      4.871930     0.903872   257.356847 -0.243800
C      2.788756    -0.414302   257.694642  0.439600
O      2.734628     0.047723   258.808546 -0.450700
O      1.751986    13.260140   257.018140 -0.354600
C      0.521062    13.128610   257.734110 -0.055900
C      4.900414    12.590586   257.159226 -0.159600
C      4.457075    11.085206   257.348155 -0.035600
C      5.703708    10.165606   257.521836 -0.229900
C      3.532893    10.871358   258.645155  0.436800
O      2.515563    10.231764   258.673066 -0.452100
O      4.022289    11.544379   259.599644 -0.352200
C      3.403657    11.588313   260.896221 -0.056800
C      3.616099    10.593616   256.160729 -0.236300
H      2.953474    10.900422   247.482856  0.087100
H      3.955430    11.550466   248.698104  0.087100
H      3.146422    12.667047   247.602215  0.087100
H      1.973234    11.056455   249.819838  0.098700
H      0.896058    11.664485   248.543785  0.098700
H     -0.068784    -0.123241   248.754451  0.097400
H      0.884916     1.097816   249.353507  0.097400
H      1.594690     0.093946   247.970227  0.097400
H     12.666046    11.601341   252.334525  0.107100
H     -0.353207    10.229388   252.373330  0.107100
H      0.133497    11.686199   253.252078  0.107100
H      3.803824    -0.577866   249.877239  0.120800
H      2.935150     0.737474   250.411642  0.120800
H      2.556836    11.773103   252.717066  0.102900
H      3.533152    11.381120   251.484269  0.102900
H      4.223237    11.769577   253.108586  0.102900
H      7.754029    12.829813   252.955096  0.101900
H      7.451319     0.150935   253.781350  0.101900
H      7.634798    -0.027992   252.010207  0.101900
H      1.742967    -0.401226   253.437109  0.119600
H      2.028627     0.915703   252.409920  0.119600
H      1.315287     2.020661   254.450807  0.105000
H      1.120714     0.501770   255.340236  0.105000
H      2.247844     1.832136   255.929533  0.105000
H      6.134960     3.173575   253.213262  0.108600
H      6.828432     2.935616   254.850572  0.108600
H      5.444778     4.017208   254.456490  0.108600
H      4.696449    -0.484696   254.744360  0.119000
H      3.352794    12.904917   255.126696  0.119000
H      5.050847     0.810832   258.413207  0.102400
H      4.298772     1.847864   257.422385  0.102400
H      5.890479     0.939067   256.981319  0.102400
H      0.127168    -0.066647   258.050768  0.101200
H     -0.354564    12.573613   257.210827  0.101200
H      0.687520    12.729750   258.768336  0.101200
H      5.371284    12.735957   258.083848  0.122000
H      5.730261    12.421675   256.496949  0.122000
H      6.028615     9.872625   256.527596  0.099800
H      6.488050    10.558876   258.067943  0.099800
H      5.305942     9.195080   257.972876  0.099800
H      3.782348    12.255859   -11.352993  0.101100
H      2.411077    11.871802   260.892547  0.101100
H      3.542625    10.627560   261.432571  0.101100
H      3.604451     9.474018   256.214335  0.096100
H      4.131953    10.802359   255.298748  0.096100
H      2.583920    11.012093   256.044668  0.096100
C      0.204404     4.756468   217.772965 -0.239000
C      1.055560     5.904877   218.418455 -0.167600
C      1.833921     6.824468   217.373055 -0.029300
C      0.787059     7.200346   216.307592 -0.237800
C      2.921679     5.935267   216.728094  0.439900
O      2.802205     5.185509   215.779189 -0.448400
O      3.983477     5.983700   217.498094 -0.358300
C      5.049086     5.147615   217.136619 -0.065100
C      2.373580     8.070873   218.154620 -0.165100
C      2.944172     9.463702   217.587369 -0.009900
C      3.940283     9.978589   218.644407 -0.246800
C      3.753661     9.021846   216.358861  0.432100
O      4.869421     8.550423   216.530705 -0.452200
O      3.241902     9.264279   215.179130 -0.355800
C      4.018958     8.927256   214.044480 -0.056200
C      1.794481    10.433387   217.168943 -0.171000
C      2.012440    12.004216   217.066878 -0.031000
C      3.188183    12.421854   216.109427 -0.244000
C      0.742357    12.653820   216.498043  0.435200
O     -0.242175    12.005917   216.163773 -0.458900
O      0.770226    -0.232976   216.432525 -0.347000
C     -0.312075     0.524544   215.883387 -0.066900
C      2.186694    12.649126   218.449441 -0.170400
C      1.054421    12.581968   219.616211 -0.028400
C     -0.412345    12.487030   219.104409 -0.243800
C      1.219635    -0.329459   220.526289  0.439600
O      2.281423    -0.102066   221.070634 -0.450700
O      0.159704     0.419799   220.756058 -0.354600
C      0.206368     1.601305   221.616329 -0.055900
C      1.407333    11.353295   220.514377 -0.159600
C      0.538518    10.867821   221.753281 -0.035600
C     -0.277847    11.982917   222.439264 -0.229900
C     -0.484651     9.885260   221.199783  0.436800
O     12.561159    10.193861   220.951920 -0.452100
O     -0.069061     8.600763   221.336013 -0.352200
C     13.177573     7.586682   221.082236 -0.056800
C      1.373360    10.058136   222.751971 -0.236300
H     -0.178684     4.088587   218.490953  0.087100
H     13.459185     5.244215   217.485789  0.087100
H      0.662746     4.140955   217.013136  0.087100
H      0.486682     6.491555   219.099339  0.098700
H      1.795245     5.513844   219.063223  0.098700
H      1.313591     7.776384   215.523895  0.097400
H     -0.172735     7.616833   216.635778  0.097400
H      0.676557     6.312315   215.731627  0.097400
H      5.574845     5.642130   216.274823  0.107100
H      4.784913     4.082625   216.876627  0.107100
H      5.731596     5.156697   217.984915  0.107100
H      1.554016     8.337451   218.804142  0.120800
H      3.074630     7.624552   218.870981  0.120800
H      4.822596     9.344045   218.804608  0.102900
H      3.645692    10.041625   219.703090  0.102900
H      4.337207    10.934442   218.262506  0.102900
H      3.346316     8.938174   213.168277  0.101900
H      4.514617     7.918340   214.235408  0.101900
H      4.918979     9.512801   213.857022  0.101900
H      1.439483     9.993388   216.275556  0.119600
H      0.857303    10.219330   217.706776  0.119600
H      2.801207    12.667209   215.135103  0.105000
H      3.868335    11.535027   216.122973  0.105000
H      3.681467    13.297636   216.470352  0.105000
H     -0.305474     1.590280   216.118428  0.108600
H     12.942124     0.181111   216.242920  0.108600
H     -0.366418     0.340223   214.839063  0.108600
H      2.265567    -0.465481   218.264324  0.119000
H      3.128175    12.308603   218.899082  0.119000
H     -0.589384    11.617397   218.454252  0.102400
H     13.009547    12.559695   219.908188  0.102400
H     13.463665    13.427676   218.634555  0.102400
H      0.393415     1.248847   222.640793  0.101200
H     13.454161     2.144311   221.671680  0.101200
H      1.165035     2.137142   221.335681  0.101200
H      1.461898    10.510656   219.825334  0.122000
H      2.431639    11.568912   220.875899  0.122000
H     13.354396    12.658982   221.841713  0.099800
H      0.430411    12.624780   223.000994  0.099800
H     13.197592    11.553716   223.098641  0.099800
H     12.782704     7.643796   220.064612  0.101100
H     -0.566778     6.676830   221.155554  0.101100
H     12.324029     7.649871   221.801095  0.101100
H      2.043917    10.793665   223.237541  0.096100
H      0.756238     9.514988   223.454888  0.096100
H      2.036504     9.380730   222.327762  0.096100
C     11.359746     0.377020   181.362951 -0.239000
C     10.494757     1.231901   182.246607 -0.167600
C      9.236175     1.965085   181.693710 -0.029300
C      9.747128     2.998545   180.634602 -0.237800
C      8.450699     1.045057   180.848398  0.439900
O      8.374607    -0.147203   181.103796 -0.448400
O      7.523595     1.712619   180.119222 -0.358300
C      6.545289     0.958270   179.447386 -0.065100
C      8.250918     2.653024   182.760737 -0.165100
C      7.703363     1.933879   184.085569 -0.009900
C      7.043876     0.532787   183.759264 -0.246800
C      8.720816     1.620366   185.182383  0.432100
O      8.482406     1.011010   186.210264 -0.452200
O      9.873827     2.218304   184.943547 -0.355800
C     10.956212     1.951905   185.832482 -0.056200
C      6.485165     2.715494   184.626732 -0.171000
C      6.649725     4.237520   185.039144 -0.031000
C      7.730604     4.375751   186.133391 -0.244000
C      6.934959     5.148563   183.824081  0.435200
O      6.219205     5.151648   182.844691 -0.458900
O      8.036083     5.898649   183.922725 -0.347000
C      8.321291     6.768643   182.910979 -0.066900
C      5.281916     4.923230   185.494513 -0.170400
C      4.341706     4.302182   186.560864 -0.028400
C      3.065098     5.124731   186.809214 -0.243800
C      3.787083     3.034653   185.954195  0.439600
O      3.143396     3.014442   184.861621 -0.450700
O      4.078806     1.886450   186.512059 -0.354600
C      3.459183     0.689923   185.978480 -0.055900
C      5.148493     4.039951   187.902858 -0.159600
C      4.440849     3.770144   189.276486 -0.035600
C      3.485296     2.563890   189.293364 -0.229900
C      3.731962     5.024445   189.748807  0.436800
O      4.420657     5.987943   190.056026 -0.452100
O      2.367281     4.963863   189.886343 -0.352200
C      1.784377     6.182353   190.307139 -0.056800
C      5.596722     3.448102   190.257677 -0.236300
H     11.633723     0.952322   180.551941  0.087100
H     10.898512    13.587679   181.089847  0.087100
H     12.332521     0.077322   181.778262  0.087100
H     11.063429     1.935666   182.815892  0.098700
H     10.242776     0.632502   183.077031  0.098700
H     10.428362     3.764940   180.937837  0.097400
H     10.003127     2.387355   179.775673  0.097400
H      8.929594     3.590899   180.251255  0.097400
H      6.006907     1.707190   178.865213  0.107100
H      6.862606     0.223242   178.783463  0.107100
H      5.900796     0.458573   180.198550  0.107100
H      8.896038     3.460316   183.230461  0.120800
H      7.463724     3.135957   182.222228  0.120800
H      6.512583     0.076808   184.574854  0.102900
H      6.432899     0.619379   182.804742  0.102900
H      7.819985    -0.251659   183.620320  0.102900
H     11.686464     2.561497   185.363106  0.101900
H     11.208468     0.892229   185.843164  0.101900
H     10.741802     2.219076   186.804263  0.101900
H      6.245630     2.206028   185.519488  0.119600
H      5.648343     2.666339   183.887074  0.119600
H      7.790122     5.361559   186.605848  0.105000
H      7.793377     3.556878   186.880702  0.105000
H      8.660766     4.176964   185.629983  0.105000
H      8.391670     6.360856   181.866149  0.108600
H      9.342078     7.131755   182.994093  0.108600
H      7.669276     7.610152   182.925240  0.108600
H      4.692733     5.182991   184.577245  0.119000
H      5.664814     5.902991   185.865231  0.119000
H      2.593019     5.560430   185.899094  0.102400
H      2.323814     4.483120   187.320319  0.102400
H      3.470437     5.954880   187.412052  0.102400
H      2.429454     0.853377   185.678834  0.101200
H      3.953645     0.209895   185.088410  0.101200
H      3.520561     0.009728   186.823241  0.101200
H      5.710422     4.999920   188.098875  0.122000
H      5.872816     3.178513   187.700744  0.122000
H      3.856085     1.677086   188.858560  0.099800
H      3.206837     2.352404   190.349731  0.099800
H      2.560195     2.848149   188.805742  0.099800
H      0.689336     6.196867   190.289065  0.101100
H      2.079847     7.089065   189.738649  0.101100
H      1.995522     6.290901   191.355167  0.101100
H      5.121679     3.526010   191.195655  0.096100
H      6.053647     2.451894   190.246201  0.096100
H      6.232415     4.309759   190.235129  0.096100
C     13.415829     3.460035    19.951617 -0.239000
C     -0.171280     2.909075    21.213333 -0.167600
C      0.549233     3.876250    22.326938 -0.029300
C      0.835875     2.990401    23.551122 -0.237800
C      1.788860     4.407183    21.709010  0.439900
O      2.943458     4.128370    22.052390 -0.448400
O      1.560807     5.441312    20.820671 -0.358300
C      2.562741     6.100734    20.181194 -0.065100
C     -0.483712     5.015062    22.666689 -0.165100
C     -0.439708     6.170787    23.812359 -0.009900
C      0.986601     6.689462    23.928774 -0.246800
C     12.862961     7.376061    23.359947  0.432100
O     13.267372     8.509727    23.238383 -0.452200
O     11.675345     6.986426    23.006765 -0.355800
C     10.772134     8.001411    22.589938 -0.056200
C     13.234763     5.633595    25.203267 -0.171000
C     13.548161     6.388877    26.557730 -0.031000
C      0.801172     6.055497    26.976842 -0.244000
C     13.376203     7.899496    26.430026  0.435200
O      0.014798     8.700247    26.836388 -0.458900
O     12.163245     8.264707    25.976365 -0.347000
C     11.742302     9.589094    26.018281 -0.066900
C     12.403719     5.927489    27.473493 -0.170400
C     12.288194     6.290977    29.010300 -0.028400
C     13.065013     7.519968    29.341652 -0.243800
C     10.760454     6.604842    29.293325  0.439600
O     10.018108     5.792402    29.801672 -0.450700
O     10.365534     7.880896    28.927124 -0.354600
C      9.046414     8.220808    29.242758 -0.055900
C     12.752286     5.081516    29.930777 -0.159600
C     13.198588     5.115344    31.376631 -0.035600
C     12.111527     5.807185    32.310121 -0.229900
C      0.409893     5.690083    31.560399  0.436800
O      1.346065     5.137712    30.973411 -0.452100
O      0.476608     6.819272    32.305107 -0.352200
C      1.793880     7.486934    32.408827 -0.056800
C     13.230238     3.664612    31.944937 -0.236300
H     12.556306     2.857000    19.618179  0.087100
H     -0.039819     3.536728    19.176785  0.087100
H     13.114584     4.553657    20.178119  0.087100
H      0.558978     2.168358    20.938777  0.098700
H     13.278545     2.361676    21.693240  0.098700
H      1.453422     2.091664    23.243246  0.097400
H      1.432481     3.443827    24.334542  0.097400
H     -0.065727     2.625665    24.006404  0.097400
H      3.523987     5.635651    20.240765  0.107100
H      2.526665     7.112508    20.443284  0.107100
H      2.332491     6.041561    19.160703  0.107100
H     12.757512     4.518345    22.667627  0.120800
H     -0.557094     5.661859    21.789283  0.120800
H      1.393546     6.840608    22.912589  0.102900
H      1.672980     6.039302    24.492062  0.102900
H      1.014031     7.601908    24.484057  0.102900
H      9.785717     7.631187    22.645053  0.101900
H     10.947444     8.375694    21.549781  0.101900
H     10.766243     8.865526    23.249979  0.101900
H     12.139560     5.532885    25.061802  0.119600
H     13.564136     4.611841    25.240927  0.119600
H      1.579147     6.821419    26.728453  0.105000
H      1.179325     5.149427    26.474403  0.105000
H      0.918501     5.835862    28.039727  0.105000
H     12.450602    10.167139    25.442946  0.108600
H     11.787132     9.961979    27.057629  0.108600
H     10.774196     9.674400    25.498857  0.108600
H     11.489667     6.137211    27.005660  0.119000
H     12.384137     4.854689    27.341859  0.119000
H     -0.108715     7.357653    29.239379  0.102400
H     13.013709     7.753145    30.465102  0.102400
H     12.715841     8.415133    28.767778  0.102400
H      9.076340     9.311656    29.263879  0.101200
H      8.791836     7.776836    30.243093  0.101200
H      8.443696     7.853700    28.454964  0.101200
H     11.959181     4.327992    29.800739  0.122000
H     -0.575192     4.688037    29.315390  0.122000
H     11.293878     5.060824    32.379058  0.099800
H     11.679409     6.690247    31.777266  0.099800
H     12.538093     6.182761    33.287575  0.099800
H      1.550242     8.374365    32.989188  0.101100
H      2.488070     6.715212    32.849638  0.101100
H      2.294981     7.667507    31.431831  0.101100
H     12.401736     3.031971    31.571203  0.096100
H     -0.189107     3.035317    31.584040  0.096100
H     13.427718     3.718571    33.002236  0.096100
C      3.460201     8.944470   138.210033 -0.239000
C      2.886681     9.682294   137.006273 -0.167600
C      3.918899    10.608396   136.353213 -0.029300
C      3.329111    11.124431   135.008055 -0.237800
C      4.198099    11.783854   137.327014  0.439900
O      3.386310    12.645467   137.605689 -0.448400
O      5.419457    11.757723   137.925452 -0.358300
C      5.809764    12.806056   138.840761 -0.065100
C      5.272586     9.984062   135.965760 -0.165100
C      5.570470     8.866022   134.807561 -0.009900
C      6.971136     8.278501   135.225985 -0.246800
C      5.641004     9.643716   133.457452  0.432100
O      4.793398     9.472537   132.572491 -0.452200
O      6.703431    10.561107   133.370295 -0.355800
C      6.948540    11.244739   132.150171 -0.056200
C      4.466664     7.704950   134.812075 -0.171000
C      4.702620     6.274890   134.193208 -0.031000
C      5.419613     5.471795   135.242009 -0.244000
C      3.196146     5.816000   134.029751  0.435200
O      2.428256     6.232613   133.127667 -0.458900
O      2.822845     4.986330   135.035771 -0.347000
C      1.946051     3.949209   134.638645 -0.066900
C      5.382469     6.244772   132.805710 -0.170400
C      5.978918     4.926670   132.161209 -0.028400
C      7.222203     4.521690   132.884366 -0.243800
C      6.286359     5.188248   130.694416  0.439600
O      5.392231     5.460136   129.909509 -0.450700
O      7.533355     4.801295   130.311357 -0.354600
C      7.848916     4.698883   128.938338 -0.055900
C      4.871820     3.869075   132.181452 -0.159600
C      4.975593     2.442740   131.525589 -0.035600
C      4.840765     2.469047   129.966579 -0.229900
C      3.854030     1.512557   132.079574  0.436800
O      4.044615     0.915781   133.148510 -0.452100
O      2.829975     1.359000   131.227785 -0.352200
C      1.923296     0.276730   131.416460 -0.056800
C      6.387182     1.777402   131.721076 -0.236300
H      4.326300     8.204344   138.015570  0.087100
H      2.696775     8.269746   138.704821  0.087100
H      3.669457     9.634898   139.070287  0.087100
H      2.528076     8.921079   136.295237  0.098700
H      2.041879    10.218594   137.512961  0.098700
H      4.100685    11.538447   134.365861  0.097400
H      2.556422    11.927224   135.064231  0.097400
H      2.902540    10.299852   134.347892  0.097400
H      6.689668    12.514152   139.388840  0.107100
H      6.145725    -0.540795   138.305480  0.107100
H      4.987263    13.037408   139.536369  0.107100
H      5.724075     9.687522   136.882669  0.120800
H      5.857562    10.886228   135.765259  0.120800
H      7.380339     7.540433   134.529589  0.102900
H      6.937303     7.891874   136.259610  0.102900
H      7.774588     9.054716   135.213171  0.102900
H      7.689628    11.926678   132.411477  0.101900
H      6.033675    11.837769   131.881378  0.101900
H      7.315160    10.613214   131.348590  0.101900
H      3.561471     8.184305   134.306895  0.119600
H      4.176979     7.639023   135.817779  0.119600
H      6.505270     5.636476   135.315610  0.105000
H      5.310020     4.385495   134.996145  0.105000
H      5.137911     5.465827   136.248400  0.105000
H      0.996420     4.390777   134.254680  0.108600
H      1.840364     3.379869   135.631452  0.108600
H      2.318309     3.335306   133.911261  0.108600
H      6.127011     6.993477   132.769861  0.119000
H      4.719442     6.736790   132.099385  0.119000
H      7.099532     3.819023   133.732586  0.102400
H      7.624128     5.457333   133.339230  0.102400
H      8.036099     4.011758   132.449626  0.102400
H      7.287439     4.021898   128.409529  0.101200
H      8.876020     4.363306   128.843272  0.101200
H      7.831738     5.672154   128.471533  0.101200
H      4.500175     3.707373   133.114587  0.122000
H      4.043725     4.283354   131.641956  0.122000
H      5.684817     2.943485   129.587020  0.099800
H      3.979894     3.047459   129.582196  0.099800
H      4.661581     1.531203   129.494012  0.099800
H      1.264912     0.248207   130.632613  0.101100
H      2.474145    13.509611   131.360809  0.101100
H      1.366049     0.324778   132.371799  0.101100
H      7.248126     2.177573   131.134978  0.096100
H      6.732946     1.892156   132.780321  0.096100
H      6.342230     0.676073   131.486653  0.096100
C      8.308556    12.542645   201.347636 -0.239000
C      8.511722    13.200971   199.965248 -0.167600
C      9.986118    -0.484549   199.622075 -0.029300
C     10.940250    12.498240   199.694027 -0.237800
C     10.055144    -0.018001   198.191318  0.439900
O     11.053685     0.566222   197.783591 -0.448400
O      9.051166    -0.465783   197.465741 -0.358300
C      8.967232    -0.004204   196.149369 -0.065100
C     10.377201     0.708736   200.607051 -0.165100
C      9.458855     2.043168   200.747212 -0.009900
C      9.063103     2.661288   199.400473 -0.246800
C      8.172326     1.590963   201.580817  0.432100
O      8.180601     1.535028   202.790890 -0.452200
O      7.032779     1.806801   200.839190 -0.355800
C      5.826141     1.264321   201.372908 -0.056200
C     10.267919     2.996276   201.722115 -0.171000
C      9.780504     4.485129   202.005071 -0.031000
C      8.272078     4.550388   202.368176 -0.244000
C      9.942022     5.291754   200.722602  0.435200
O     10.981715     5.289617   200.060833 -0.458900
O      8.938560     6.183533   200.344098 -0.347000
C      8.743152     6.623803   199.015843 -0.066900
C     10.719674     4.900667   203.143798 -0.170400
C     10.363412     6.006809   204.155374 -0.028400
C      9.179455     5.788105   205.054231 -0.243800
C     11.620845     6.015687   205.032529  0.439600
O     12.707052     6.407407   204.631618 -0.450700
O     11.479636     5.456157   206.249901 -0.354600
C     12.621372     5.290954   207.065377 -0.055900
C     10.286797     7.396491   203.393472 -0.159600
C     10.044447     8.805456   204.067120 -0.035600
C     11.165984     9.178627   205.148047 -0.229900
C      8.683418     8.777630   204.789920  0.436800
O      8.530411     8.770313   205.982392 -0.452100
O      7.737448     8.802742   203.886354 -0.352200
C      6.415151     9.059975   204.375091 -0.056800
C      9.976520     9.888945   203.037156 -0.236300
H      8.599097    13.148036   202.238808  0.087100
H      7.238407    12.336089   201.568020  0.087100
H      8.939304    11.662049   201.355020  0.087100
H      7.791761    -0.228396   199.746689  0.098700
H      8.195642    12.509426   199.209980  0.098700
H     10.503028    11.694059   199.095615  0.097400
H     11.026986    12.194012   200.706998  0.097400
H     11.948398    12.745038   199.302435  0.097400
H      9.136131     1.056562   196.081435  0.107100
H      7.970218    -0.080532   195.787704  0.107100
H      9.513039    -0.506594   195.349594  0.107100
H     10.378262     0.394660   201.666420  0.120800
H     11.445005     1.003205   200.338211  0.120800
H      8.569981     1.811489   198.824041  0.102900
H      8.302362     3.485187   199.389045  0.102900
H      9.914110     2.979728   198.774088  0.102900
H      5.190494     1.116845   200.541598  0.101900
H      5.381668     1.782872   202.205164  0.101900
H      6.082564     0.278589   201.645941  0.101900
H     11.205644     3.118193   201.266865  0.119600
H     10.450781     2.408790   202.636182  0.119600
H      7.865585     5.608847   202.576363  0.105000
H      8.181080     4.005477   203.264615  0.105000
H      7.622662     4.197480   201.544176  0.105000
H      7.807030     6.207618   198.618344  0.108600
H      9.612260     6.543185   198.375122  0.108600
H      8.445301     7.647968   198.982420  0.108600
H     11.576190     5.348275   202.634754  0.119000
H     11.159189     4.033572   203.645698  0.119000
H      8.222898     6.054355   204.592554  0.102400
H      9.144995     4.767700   205.575963  0.102400
H      9.252740     6.462388   205.896526  0.102400
H     13.437416     4.841178   206.525661  0.101200
H     12.994633     6.143919   207.575941  0.101200
H     12.449368     4.505844   207.837952  0.101200
H     11.114328     7.600677   202.739362  0.122000
H      9.440581     7.258520   202.681744  0.122000
H     10.979092    10.189606   205.538059  0.099800
H     12.131869     9.392114   204.822113  0.099800
H     11.339530     8.476844   205.968076  0.099800
H      5.689778     9.175059   203.560329  0.101100
H      5.954660     8.297760   205.035445  0.101100
H      6.384782     9.921846   205.051544  0.101100
H      9.197307     9.576535   202.335747  0.096100
H      9.672221    10.789456   203.580225  0.096100
H     10.920389    10.281542   202.675936  0.096100
C     -0.049188     7.329896   154.153069 -0.239000
C      0.913610     8.502447   153.720020 -0.167600
C      1.135421     9.746026   154.736968 -0.029300
C     -0.179427    10.506338   154.886905 -0.237800
C      1.547555     9.096089   156.100096  0.439900
O      2.435605     8.286323   156.236630 -0.448400
O      0.725855     9.512975   157.112150 -0.358300
C      0.690652     8.944014   158.369224 -0.065100
C      2.403994    10.519277   154.213597 -0.165100
C      2.486011    12.081043   154.470817 -0.009900
C      3.923293    12.593798   154.047477 -0.246800
C      1.448573    12.690875   153.551187  0.432100
O      1.232579    12.185420   152.463156 -0.452200
O      0.932204    -0.297612   153.974288 -0.355800
C      0.382673     0.542022   153.027286 -0.056200
C      2.168605    12.458506   155.987659 -0.171000
C      3.150013    13.035196   157.039689 -0.031000
C      4.319437    12.044316   157.346232 -0.244000
C      3.798168     0.179433   156.600925  0.435200
O      4.903630     0.479596   157.007090 -0.458900
O      3.103905     1.002498   155.744655 -0.347000
C      3.706863     2.282437   155.327811 -0.066900
C      2.475784    13.257819   158.491392 -0.170400
C      1.145624    -0.129078   158.742995 -0.028400
C      1.467471     1.332572   158.239853 -0.243800
C     -0.037132    13.497157   157.996694  0.439600
O     -0.438007    12.310030   158.064849 -0.450700
O     13.430977     0.122061   157.298850 -0.354600
C     12.168950    -0.313443   156.784319 -0.055900
C      0.807352     0.021918   160.246083 -0.159600
C      0.699058    13.107251   161.330399 -0.035600
C      2.077345    12.549042   161.749791 -0.229900
C     -0.014511    -0.471808   162.590763  0.436800
O      0.519107     0.377612   163.261323 -0.452100
O     13.048170    13.179750   162.940354 -0.352200
C     12.472919    13.461103   164.190066 -0.056800
C     -0.114300    11.849362   160.889846 -0.236300
H      0.312177     6.754460   155.033004  0.087100
H     13.038747     7.469987   154.273946  0.087100
H      0.014494     6.624407   153.312837  0.087100
H      1.899292     8.039661   153.563742  0.098700
H      0.610503     8.946615   152.806335  0.098700
H     -0.134846    11.426857   155.507529  0.097400
H     -0.490699    10.846997   153.868986  0.097400
H     13.279797     9.749874   155.241744  0.097400
H      0.031140     9.512448   159.014277  0.107100
H      0.479752     7.937288   158.275750  0.107100
H      1.637057     9.019264   158.871042  0.107100
H      3.256146    10.168997   154.856709  0.120800
H      2.819978    10.323333   153.240647  0.120800
H      4.208853    -0.538112   154.215425  0.102900
H      4.103418    12.430071   152.920685  0.102900
H      4.709756    12.053070   154.614151  0.102900
H     -0.214746     1.263915   153.475171  0.101900
H      1.043403     1.021214   152.335820  0.101900
H     -0.323117    -0.023666   152.380634  0.101900
H      1.623629    11.687175   156.397221  0.119600
H      1.484107    13.236537   156.004070  0.119600
H      5.213507    12.233850   156.744399  0.105000
H      4.781182    12.179244   158.346253  0.105000
H      4.133171    10.996856   157.237340  0.105000
H      4.468649     2.123075   154.512405  0.108600
H      4.206454     2.772050   156.192226  0.108600
H      2.904961     2.976849   155.018300  0.108600
H      2.393393    12.282532   158.898079  0.119000
H      3.162654    -0.376784   159.184828  0.119000
H      2.495339     1.499930   158.279900  0.102400
H      0.976991     2.174601   158.726207  0.102400
H      1.167969     1.511065   157.218945  0.102400
H     11.654524     0.541826   156.301395  0.101200
H     11.459968    13.444834   157.499984  0.101200
H     12.296961    13.179112   155.991184  0.101200
H      1.427003     0.691496   160.723631  0.122000
H     -0.211400     0.505256   160.342686  0.122000
H      1.884642    11.622497   162.368511  0.099800
H      2.653120    12.171585   160.902077  0.099800
H      2.764603    13.194195   162.354507  0.099800
H     11.443644    13.090211   164.308649  0.101100
H     12.367458     0.372732   164.215265  0.101100
H     13.067788    13.194134   165.031144  0.101100
H     13.147628    12.066703   160.358723  0.096100
H     -0.471118    11.222481   161.732960  0.096100
H      0.492951    11.277014   160.194793  0.096100
C      3.703070     8.264147    -0.718127 -0.239000
C      2.455356     7.679505     0.002144 -0.167600
C      2.708933     6.472486     0.982458 -0.029300
C      3.333564     7.019799     2.272410 -0.237800
C      3.704448     5.535282     0.227044  0.439900
O      3.483273     5.096145    -0.917346 -0.448400
O      4.894137     5.396499     0.860048 -0.358300
C      6.006822     5.046322     0.011607 -0.065100
C      1.324050     5.895250     1.380512 -0.165100
C      1.043033     4.493579     1.810921 -0.009900
C      2.016521     4.272052     2.997987 -0.246800
C     -0.354856     4.568026     2.407156  0.432100
O     13.490792     3.700758     3.189014 -0.452200
O     13.056931     5.464843     1.788200 -0.355800
C     11.668424     5.581641     2.225852 -0.056200
C      1.297636     3.238909     0.828630 -0.171000
C      0.213806     2.602992    -0.225732 -0.031000
C     13.100460     2.238969     0.481619 -0.244000
C     -0.187182     3.497404    -1.414698  0.435200
O     13.451167     3.033357    -2.358092 -0.458900
O     -0.047567     4.835484    -1.311737 -0.347000
C     -0.317676     5.701969    -2.461932 -0.066900
C      0.789765     1.264689    -0.734397 -0.170400
C      2.214765     1.103382    -1.420054 -0.028400
C      2.248387     2.104307    -2.582758 -0.243800
C      3.375526     1.422185    -0.473093  0.439600
O      4.399753     2.024395    -0.786514 -0.450700
O      3.170188     0.806992     0.724558 -0.354600
C      4.123240     1.087370     1.810410 -0.055900
C      2.569423    -0.359481    -1.916860 -0.159600
C      1.928668    13.089940    -3.183493 -0.035600
C      2.532524    -0.499931    -4.485067 -0.229900
C      0.407876    13.351083    -3.212867  0.436800
O     -0.329784    12.850691    -2.330000 -0.452100
O     -0.022603    -0.166045    -4.206505 -0.352200
C     12.780791     0.245091    -4.243277 -0.056800
C      2.130119    11.582054    -3.085627 -0.236300
H      4.071159     7.617523    -1.559550  0.087100
H      3.391145     9.181529    -1.230420  0.087100
H      4.527483     8.518890    -0.099853  0.087100
H      1.980603     8.491146     0.553855  0.098700
H      1.717453     7.382218    -0.682174  0.098700
H      4.196487     7.648241     2.018023  0.097400
H      3.713484     6.147920     2.852729  0.097400
H      2.583163     7.619796     2.789063  0.097400
H      6.964177     4.849316     0.482395  0.107100
H      5.772925     4.166800    -0.649355  0.107100
H      6.287521     5.907455    -0.648466  0.107100
H      0.726992     5.973525     0.482014  0.120800
H      0.961092     6.615700     2.140428  0.120800
H      1.675052     3.435340     3.627600  0.102900
H      2.033244     5.131664     3.667258  0.102900
H      3.009134     4.088594     2.526906  0.102900
H     10.978281     5.765773     1.334971  0.101900
H     11.582073     6.311426     2.997864  0.101900
H     11.322555     4.622727     2.632917  0.101900
H      1.600691     2.398681     1.487020  0.119600
H      2.241740     3.429741     0.341881  0.119600
H     12.502702     1.454692    -0.011940  0.105000
H     13.336110     1.799461     1.458902  0.105000
H     12.400970     3.065130     0.570715  0.105000
H     12.973999     5.375140    -2.941541  0.108600
H      0.594613     5.679991    -3.106698  0.108600
H     -0.390422     6.692590    -2.036583  0.108600
H      0.065140     1.004254    -1.463503  0.119000
H      0.682236     0.577191     0.076960  0.119000
H      2.481580     3.102551    -2.216674  0.102400
H      3.139584     2.014245    -3.236295  0.102400
H      1.354096     2.064833    -3.260023  0.102400
H      5.125013     0.887730     1.461325  0.101200
H      3.984211     2.188929     2.038985  0.101200
H      3.824630     0.484774     2.669224  0.101200
H      3.635028    -0.296110    -2.127452  0.122000
H      2.445437    13.192594    -1.039105  0.122000
H      3.572056    13.448676    -4.686227  0.099800
H      2.424268     0.606329    -4.652270  0.099800
H      2.160037    13.215063    -5.344405  0.099800
H     12.183188    13.556861    -4.312552  0.101100
H     12.644222     0.806840    -5.219071  0.101100
H     12.354942     0.756263    -3.409469  0.101100
H      1.567044    11.142529    -3.916108  0.096100
H      1.802177    11.176919    -2.129002  0.096100
H      3.198625    11.295523    -3.140614  0.096100
C      8.288116     5.308123   142.616651 -0.239000
C      8.868876     4.556408   141.349239 -0.167600
C      8.479955     4.983982   139.864290 -0.029300
C      6.930061     5.069445   139.778021 -0.237800
C      9.160741     6.324233   139.409181  0.439900
O     10.372240     6.479950   139.450201 -0.448400
O      8.277798     7.242183   138.972185 -0.358300
C      8.754233     8.524043   138.519355 -0.065100
C      8.983914     3.909394   138.816460 -0.165100
C      8.279340     2.540408   138.605599 -0.009900
C      8.218128     1.692879   139.946945 -0.246800
C      6.822569     2.719608   138.091283  0.432100
O      6.606432     3.345805   137.025947 -0.452200
O      5.786164     1.953727   138.829481 -0.355800
C      4.494555     1.759280   138.268180 -0.056200
C      8.989528     1.695748   137.470214 -0.171000
C     10.248177     0.851065   137.644874 -0.031000
C     11.357326     1.692285   138.408890 -0.244000
C     10.081340    -0.525996   138.369125  0.435200
O      9.009954    13.088190   138.414266 -0.458900
O     11.037075    13.296588   139.229463 -0.347000
C     10.852902    12.165206   140.021505 -0.066900
C     11.056243     0.639657   136.267593 -0.170400
C     10.452937    -0.118864   135.027444 -0.028400
C     10.481274    12.555332   135.263944 -0.243800
C      8.990368     0.295395   134.658920  0.439600
O      8.689235     1.391884   134.257202 -0.450700
O      8.050984    13.522871   134.867931 -0.354600
C      6.704091    -0.313853   134.692290 -0.055900
C     11.195013     0.209349   133.658768 -0.159600
C     11.997355     1.543111   133.367144 -0.035600
C     12.509035     1.390483   131.876685 -0.229900
C     13.165556     1.651326   134.247234  0.436800
O     13.585056     2.712955   134.781162 -0.452100
O     -0.442269     0.465871   134.444278 -0.352200
C      0.830801     0.499021   135.144315 -0.056800
C     11.152668     2.837236   133.433672 -0.236300
H      8.705390     5.081733   143.601419  0.087100
H      7.216701     5.237132   142.777089  0.087100
H      8.476696     6.339904   142.555871  0.087100
H      9.953204     4.762012   141.449483  0.098700
H      8.801853     3.480387   141.544282  0.098700
H      6.635776     5.260667   138.727277  0.097400
H      6.460401     5.804600   140.365320  0.097400
H      6.421274     4.147690   140.005642  0.097400
H      8.939767     8.329376   137.495651  0.107100
H      9.755041     8.712069   138.786237  0.107100
H      8.074186     9.336896   138.673924  0.107100
H      8.806575     4.341666   137.878236  0.120800
H     10.003420     3.865251   138.820522  0.120800
H      7.554256     2.260805   140.696650  0.102900
H      9.094991     1.427872   140.384056  0.102900
H      7.714358     0.752394   139.838474  0.102900
H      4.112735     2.710086   137.796500  0.101900
H      3.712966     1.512098   138.939741  0.101900
H      4.586679     0.982444   137.540088  0.101900
H      8.284030     1.001809   136.942536  0.119600
H      9.325322     2.458059   136.696170  0.119600
H     11.002234     1.857380   139.376770  0.105000
H     11.574879     2.672073   138.001086  0.105000
H     12.330105     1.020894   138.527274  0.105000
H     10.900880    11.209706   139.452158  0.108600
H     11.532091    12.055253   140.861065  0.108600
H      9.930958    12.304506   140.642820  0.108600
H     12.002140     0.157611   136.548313  0.119000
H     11.184564     1.617064   135.862220  0.119000
H      9.853546    12.271656   136.151439  0.102400
H     10.070007    11.991264   134.446020  0.102400
H     11.506496    12.213433   135.328793  0.102400
H      6.502442    -0.458710   133.652913  0.101200
H      6.505583     0.628251   135.090786  0.101200
H      6.056237    13.180185   135.309994  0.101200
H     10.409785     0.185901   132.824054  0.122000
H     11.890948    13.570208   133.577680  0.122000
H     13.227606     2.160198   131.555470  0.099800
H     11.728687     1.267243   131.112043  0.099800
H     13.053338     0.477533   131.745631  0.099800
H      0.688459     0.889942   136.126938  0.101100
H      1.324865    -0.452639   135.279572  0.101100
H      1.522342     1.127424   134.562464  0.101100
H     10.401684     2.790986   132.679795  0.096100
H     11.775115     3.639711   133.350020  0.096100
H     10.631044     3.012966   134.398071  0.096100
C     13.187486    10.001915   257.883899 -0.239000
C     12.454931     8.838471   258.549462 -0.167600
C     13.303251     7.802775   259.344363 -0.029300
C     -0.070254     8.512460   260.522659 -0.237800
C     12.333497     6.888457   260.030536  0.439900
O     11.725479     6.093650   259.335976 -0.448400
O     12.243421     6.971997   261.323502 -0.358300
C     11.200749     6.152751   -10.926533 -0.065100
C      0.058505     7.052934   258.329604 -0.165100
C      1.236599     6.186464   258.889891 -0.009900
C      0.725182     5.172309   259.998507 -0.246800
C      1.746915     5.317070   257.732613  0.432100
O      1.834980     4.098686   257.866083 -0.452200
O      1.785800     5.947164   256.627392 -0.355800
C      1.938202     5.203818   255.410911 -0.056200
C      2.507635     6.954434   259.517649 -0.171000
C      4.021428     6.504220   259.613867 -0.031000
C      4.675752     6.393723   258.201870 -0.244000
C      4.847421     7.552030   260.443118  0.435200
O      4.373220     7.874440   -11.345457 -0.458900
O      6.018063     7.949181   259.983769 -0.347000
C      6.866833     8.706305   260.881500 -0.066900
C      4.017188     5.094614   260.324717 -0.170400
C      5.305249     4.512363   260.985974 -0.028400
C      5.047098     2.989050   261.236317 -0.243800
C      6.427306     4.606217   259.913765  0.439600
O      7.426877     5.299648   260.019382 -0.450700
O      6.243525     3.739474   258.840548 -0.354600
C      7.372262     3.613364   257.984576 -0.055900
C      5.630494     5.143266   -10.500617 -0.159600
C      6.178861     4.430144    -9.213434 -0.035600
C      6.466798     5.557347    -8.139303 -0.229900
C      7.574335     3.836027    -9.408754  0.436800
O      8.004215     3.047690    -8.559761 -0.452100
O      8.180549     4.173094   -10.532419 -0.352200
C      9.194051     3.322623   -11.074850 -0.056800
C      5.183190     3.417272    -8.575018 -0.236300
H     -0.578806    10.714704   258.620621  0.087100
H     12.470317    10.547120   257.173346  0.087100
H     -0.087703     9.689193   257.209949  0.087100
H     11.969886     8.307440   257.794030  0.098700
H     11.688156     9.260944   259.263073  0.098700
H      0.344678     7.780124   261.265765  0.097400
H     13.378318     9.145850   261.106572  0.097400
H      0.696067     9.246508   260.181808  0.097400
H     11.450294     5.091849   -10.776903  0.107100
H     11.035026     6.604150    -9.957342  0.107100
H     10.218961     6.228954   261.399730  0.107100
H      0.541649     7.745449   257.592742  0.120800
H     -0.527015     6.397809   257.650793  0.120800
H     -0.210508     4.669223   259.696646  0.102900
H      0.434450     5.726905   260.932147  0.102900
H      1.520009     4.502823   260.316172  0.102900
H      2.873519     4.660502   255.525930  0.101900
H      2.242450     5.926756   254.660071  0.101900
H      1.248823     4.540032   255.069627  0.101900
H      2.515822     7.886153   258.953322  0.119600
H      2.277024     7.366608   260.478783  0.119600
H      4.496635     5.498560   257.626485  0.105000
H      5.831105     6.354289   258.221915  0.105000
H      4.418138     7.249673   257.573116  0.105000
H      7.780882     9.018085   260.439843  0.108600
H      6.394282     9.676101   261.087284  0.108600
H      7.170117     8.224106   -11.091495  0.108600
H      3.301632     5.259803   261.191162  0.119000
H      3.644822     4.412031   259.555030  0.119000
H      5.119614     2.422569   260.392242  0.102400
H      4.124582     2.936128   -11.125795  0.102400
H      5.817993     2.603275   -11.001099  0.102400
H      7.229894     4.293432   257.105656  0.101200
H      8.292117     3.827144   258.449843  0.101200
H      7.379874     2.558974   257.667480  0.101200
H      6.398056     5.933948   -10.765675  0.122000
H      4.833493     5.819454   -10.150040  0.122000
H      6.992625     5.201147    -7.233569  0.099800
H      7.122010     6.346780    -8.530955  0.099800
H      5.524379     6.102826    -7.920593  0.099800
H      8.602999     2.454999   -11.433576  0.101100
H      9.636658     3.872802   261.081728  0.101100
H      9.933928     2.911990   -10.389112  0.101100
H      4.166073     3.547045    -8.810144  0.096100
H      5.224686     3.627835    -7.489510  0.096100
H      5.576047     2.386554    -8.661600  0.096100
C     13.023670    11.534193    38.470591 -0.239000
C      0.416853    11.368348    38.489302 -0.167600
C      1.154302    11.963270    37.234634 -0.029300
C      0.758351    13.483425    37.207312 -0.237800
C      0.737432    11.292808    35.955511  0.439900
O      1.091607    11.773465    34.857697 -0.448400
O     -0.073948    10.252023    36.152370 -0.358300
C     13.545150     9.746853    35.030116 -0.065100
C      2.710021    11.868254    37.462390 -0.165100
C      3.545959    10.523079    37.464802 -0.009900
C      4.853491    10.814539    38.041951 -0.246800
C      2.897103     9.499473    38.436341  0.432100
O      2.845583     9.763274    39.683317 -0.452200
O      2.308832     8.379174    37.909373 -0.355800
C      1.712539     7.414831    38.769607 -0.056200
C      3.618054     9.895002    36.012584 -0.171000
C      4.561073    10.404553    34.864342 -0.031000
C      3.869750    10.155018    33.540390 -0.244000
C      4.705946    11.979480    34.884483  0.435200
O      5.705175    12.531087    35.364194 -0.458900
O      3.733561    12.638559    34.240183 -0.347000
C      3.584877    -0.153016    34.489359 -0.066900
C      6.047917     9.807513    34.870851 -0.170400
C      6.472072     8.363343    34.414157 -0.028400
C      5.791335     7.189595    35.153735 -0.243800
C      6.268041     8.290578    32.908381  0.439600
O      6.649270     9.122384    32.122136 -0.450700
O      5.822132     7.164965    32.518180 -0.354600
C      5.676047     6.908451    31.146794 -0.055900
C      8.005672     8.201229    34.510199 -0.159600
C      8.802151     8.485878    35.776671 -0.035600
C      8.153645     7.961316    37.141464 -0.229900
C      9.129114     9.983321    35.902941  0.436800
O      8.793546    10.601175    36.888026 -0.452100
O      9.872342    10.465745    34.880632 -0.352200
C     10.298592    11.815781    34.862410 -0.056800
C     10.188500     7.920043    35.613660 -0.236300
H     12.715519    12.496005    38.425141  0.087100
H     12.587841    11.354297    39.452827  0.087100
H     12.483469    10.871087    37.741340  0.087100
H      0.837329    11.696571    39.375011  0.098700
H      0.567821    10.291628    38.576050  0.098700
H      0.776390    -0.211947    38.186633  0.097400
H     -0.192384    -0.516107    36.789720  0.097400
H      1.542042    -0.241746    36.589212  0.097400
H     12.648862    10.237711    34.712902  0.107100
H     13.242714     8.749257    35.209983  0.107100
H      0.048687     9.674451    34.187504  0.107100
H      2.824043    12.111521    38.505439  0.120800
H      3.243175    12.612003    36.853335  0.120800
H      5.338116    11.543091    37.443044  0.102900
H      4.859493    11.301358    39.045059  0.102900
H      5.614978     9.958884    37.952136  0.102900
H      0.607688     7.553772    38.970151  0.101900
H      1.888708     6.523690    38.215128  0.101900
H      2.250301     7.335448    39.716263  0.101900
H      3.992191     8.902832    36.151472  0.119600
H      2.627809     9.626828    35.607824  0.119600
H      4.275742    10.726069    32.671830  0.105000
H      2.858938    10.515328    33.510703  0.105000
H      3.822452     9.069719    33.359574  0.105000
H      2.812280     0.243175    33.918209  0.108600
H      3.486603     0.145836    35.494185  0.108600
H      4.496930     0.253237    34.147253  0.108600
H      6.727359    10.406410    34.240184  0.119000
H      6.374705     9.904352    35.894388  0.119000
H      6.415004     6.309761    35.198753  0.102400
H      4.774080     6.910184    34.918744  0.102400
H      5.738200     7.421983    36.214819  0.102400
H      4.921248     7.652295    30.732440  0.101200
H      6.673965     6.927148    30.732163  0.101200
H      5.382982     5.921939    30.999973  0.101200
H      8.354367     7.216135    34.220702  0.122000
H      8.490240     8.802984    33.680931  0.122000
H      7.134438     8.328057    37.276742  0.099800
H      8.812570     8.249246    37.984680  0.099800
H      8.040944     6.902560    37.167326  0.099800
H      9.439769    12.477344    34.699659  0.101100
H     10.978583    12.052424    34.060102  0.101100
H     10.680301    12.152400    35.872105  0.101100
H     10.623916     8.296463    34.701269  0.096100
H     10.266616     6.860339    35.602410  0.096100
H     10.790577     8.133528    36.465114  0.096100
C      1.853457     4.228355    70.994787 -0.239000
C      1.034007     2.922050    70.622851 -0.167600
C     -0.110577     3.086553    69.595634 -0.029300
C     13.451131     1.743950    69.351317 -0.237800
C     13.002824     3.993143    70.278087  0.439900
O     12.974162     5.276884    70.150567 -0.448400
O     12.054829     3.309851    70.833638 -0.358300
C     11.097337     4.001411    71.567662 -0.065100
C      0.305319     3.820094    68.229310 -0.165100
C      1.030910     3.146353    67.025701 -0.009900
C      2.416546     2.602698    67.507820 -0.246800
C      0.338578     1.944745    66.412852  0.432100
O     13.287360     2.038420    66.260482 -0.452200
O      1.053885     0.772783    66.316229 -0.355800
C      0.345126    -0.331253    65.837861 -0.056200
C      1.398673     4.138799    65.821625 -0.171000
C      0.322278     5.156542    65.139503 -0.031000
C     13.388301     4.401992    64.417487 -0.244000
C     -0.375652     6.130726    66.204508  0.435200
O     12.652560     6.154820    66.442578 -0.458900
O      0.544140     6.794826    66.911117 -0.347000
C      0.169082     7.631260    68.040104 -0.066900
C      1.017760     6.250185    64.196239 -0.170400
C      1.879207     5.858247    62.946302 -0.028400
C      2.442607     7.209817    62.348190 -0.243800
C      3.011025     4.938126    63.381377  0.439600
O      3.766504     5.274390    64.268387 -0.450700
O      3.027609     3.656318    62.816494 -0.354600
C      4.171921     2.911720    63.019729 -0.055900
C      0.946725     5.230874    61.819123 -0.159600
C      1.416941     5.333829    60.342000 -0.035600
C      2.888924     4.804067    60.064943 -0.229900
C      1.080977     6.691276    59.686891  0.436800
O     -0.052460     7.221784    59.800064 -0.452100
O      2.115515     7.276468    59.076153 -0.352200
C      1.991547     8.443424    58.296540 -0.056800
C      0.487840     4.427603    59.554564 -0.236300
H      2.506176     4.049131    71.880810  0.087100
H      2.611862     4.470750    70.251393  0.087100
H      1.182630     5.008917    71.280750  0.087100
H      0.661756     2.458474    71.556638  0.098700
H      1.714743     2.245862    70.215067  0.098700
H     12.518824     1.823554    68.822252  0.097400
H     13.025030     1.257507    70.228979  0.097400
H     -0.070180     1.121386    68.795258  0.097400
H     11.365543     4.182381    72.608172  0.107100
H     10.796696     4.949633    71.248354  0.107100
H     10.205125     3.368117    71.451211  0.107100
H     13.534430     4.152510    67.871102  0.120800
H      0.814245     4.745322    68.474722  0.120800
H      3.043718     2.320298    66.725909  0.102900
H      2.358288     1.766373    68.162248  0.102900
H      2.933680     3.295288    68.069951  0.102900
H     -0.392636    13.489343    66.515219  0.101900
H      0.989834    13.003656    65.675385  0.101900
H     -0.016167    -0.103543    64.934009  0.101900
H      2.238891     4.743370    66.172525  0.119600
H      1.834589     3.504310    65.044426  0.119600
H     12.903208     5.113142    63.733312  0.105000
H     -0.520299     3.543741    63.854637  0.105000
H     12.638024     4.083212    65.102131  0.105000
H     13.415927     8.187334    67.687796  0.108600
H     -0.141707     7.110407    68.977591  0.108600
H      0.974609     8.401704    68.356926  0.108600
H      0.264988     7.018115    63.888676  0.119000
H      1.637996     6.744780    64.864406  0.119000
H      1.746836     7.955093    61.944259  0.102400
H      3.174815     7.036339    61.522766  0.102400
H      3.069887     7.658515    63.114651  0.102400
H      4.208089     2.585097    64.019936  0.101200
H      4.038306     1.953903    62.488110  0.101200
H      5.104872     3.390318    62.675977  0.101200
H      0.798523     4.234262    62.027256  0.122000
H      0.003008     5.744977    61.829703  0.122000
H      2.854939     3.725961    59.828540  0.099800
H      3.364863     5.266808    59.218461  0.099800
H      3.681992     4.928365    60.844340  0.099800
H      1.353849     9.194764    58.821396  0.101100
H      2.983846     8.679652    58.150331  0.101100
H      1.603393     8.360477    57.312112  0.101100
H     -0.538610     4.705975    59.729320  0.096100
H      0.724384     4.332336    58.521082  0.096100
H      0.455815     3.380453    59.968937  0.096100
C     12.800540    -0.168775    31.794767 -0.239000
C     13.450960    -0.393525    30.336099 -0.167600
C     -0.400143    12.299281    30.072714 -0.029300
C      0.729374    11.866173    31.001635 -0.237800
C     12.484011    11.431182    30.319886  0.439900
O     11.380656    11.720023    29.818504 -0.448400
O     12.601823    10.537988    31.254047 -0.358300
C     11.428208     9.768549    31.532310 -0.065100
C     -0.124917    11.915992    28.545541 -0.165100
C      0.741198    12.747067    27.536834 -0.009900
C      0.709986    12.049768    26.111130 -0.246800
C      0.001878    -0.075139    27.309146  0.432100
O     13.083536    -0.046549    26.825350 -0.452200
O      0.703600     0.990545    27.544983 -0.355800
C      0.097344     2.275754    27.356615 -0.056200
C      2.231480    12.902763    28.016515 -0.171000
C      3.356142    -0.410525    27.380586 -0.031000
C      3.233022    -0.208391    25.857361 -0.244000
C      3.541533     0.956865    28.066890  0.435200
O      4.210026     1.849193    27.582197 -0.458900
O      3.139779     1.014943    29.320393 -0.347000
C      3.040999     2.292341    29.918275 -0.066900
C      4.755148    12.972686    27.508863 -0.170400
C      5.505805    12.679324    28.865937 -0.028400
C      4.609729    11.982546    29.947462 -0.243800
C      6.566985    11.627882    28.308369  0.439600
O      6.549282    10.398817    28.601251 -0.450700
O      7.622681    12.220352    27.510714 -0.354600
C      8.701673    11.393251    27.091522 -0.055900
C      6.316135    -0.204841    29.399978 -0.159600
C      7.152626    -0.165826    30.794377 -0.035600
C      6.227775    -0.297198    32.057629 -0.229900
C      7.835801     1.160910    30.803233  0.436800
O      9.054879     1.329456    30.847266 -0.452100
O      6.890305     2.164596    30.881195 -0.352200
C      7.149859     3.529032    30.668923 -0.056800
C      8.199077    12.863405    30.782022 -0.236300
H     13.400440    -0.535070    32.678114  0.087100
H     12.526271     0.829315    32.125642  0.087100
H     11.930161    13.439213    31.818238  0.087100
H     12.716134     0.061135    29.630210  0.098700
H      0.150251     0.283202    30.207744  0.098700
H      0.555951    11.972091    32.086437  0.097400
H      1.536007    12.516152    30.787599  0.097400
H      1.137634    10.890334    30.761497  0.097400
H     11.017484     9.258357    30.664998  0.107100
H     11.601573     8.933202    32.280046  0.107100
H     10.705757    10.378899    31.973388  0.107100
H      0.179812    10.869824    28.397310  0.120800
H     13.065648    11.771999    27.991235  0.120800
H      1.175661    12.769129    25.400084  0.102900
H     -0.243596    11.830996    25.655357  0.102900
H      1.333105    11.092572    26.136759  0.102900
H     -0.363528     2.326903    26.396366  0.101900
H     13.563125     2.434953    28.131677  0.101900
H      0.911456     2.992912    27.409785  0.101900
H      2.208805    13.119309    29.068784  0.119600
H      2.612559    11.922330    27.958670  0.119600
H      4.125912     0.324660    25.477584  0.105000
H      2.357319     0.344254    25.565650  0.105000
H      3.289873    13.049364    25.269575  0.105000
H      3.949568     2.589977    30.271898  0.108600
H      2.600012     3.005049    29.194796  0.108600
H      2.374943     2.236943    30.840473  0.108600
H      4.714480    12.026526    27.000483  0.119000
H      5.496908    13.504482    26.870430  0.119000
H      3.987016    11.199497    29.452364  0.102400
H      3.903342    12.566609    30.482412  0.102400
H      5.136228    11.387998    30.695163  0.102400
H      8.388106    10.395810    26.756907  0.101200
H      9.436295    11.296406    27.921531  0.101200
H      9.166057    12.035894    26.335392  0.101200
H      6.968660     0.136247    28.546621  0.122000
H      5.597317     0.523880    29.580964  0.122000
H      5.737580    12.903841    32.044340  0.099800
H      6.786944    -0.281535    33.016683  0.099800
H      5.384017     0.388278    32.236287  0.099800
H      7.976628     3.688742    29.939359  0.101100
H      6.247222     3.900290    30.257835  0.101100
H      7.243473     4.072891    31.594766  0.101100
H      8.691261    12.805858    29.809677  0.096100
H      9.021987    12.970119    31.411864  0.096100
H      7.690468    11.980267    31.181024  0.096100
C      7.405889     5.123000   155.942967 -0.239000
C      5.927395     5.183775   156.430236 -0.167600
C      5.644554     5.265078   157.935336 -0.029300
C      6.504583     6.524519   158.429392 -0.237800
C      4.116242     5.554220   157.983541  0.439900
O      3.543265     6.118743   158.934382 -0.448400
O      3.496933     5.050585   156.890360 -0.358300
C      2.073921     4.987695   156.833197 -0.065100
C      5.972106     3.867386   158.512438 -0.165100
C      6.466645     3.566328   159.995694 -0.009900
C      5.355426     4.148484   160.962514 -0.246800
C      6.612571     1.999858   160.106543  0.432100
O      7.120602     1.343217   159.180085 -0.452200
O      5.865906     1.513923   161.126672 -0.355800
C      5.829947     0.118292   161.393934 -0.056200
C      7.823547     4.260404   160.132505 -0.171000
C      9.032145     3.545076   161.059024 -0.031000
C      8.366509     3.279018   162.526056 -0.244000
C      9.650717     2.185304   160.540514  0.435200
O     10.229667     2.124517   159.510310 -0.458900
O      9.456100     1.037179   161.229201 -0.347000
C      9.948722    -0.233653   160.976096 -0.066900
C     10.115049     4.660198   161.373898 -0.170400
C     11.608562     4.362244   161.684235 -0.028400
C     11.656386     3.361756   162.862012 -0.243800
C     12.289731     3.738764   160.425843  0.439600
O     13.132268     2.801755   160.614059 -0.450700
O     11.897075     4.195968   159.185893 -0.354600
C     12.420480     3.702677   157.948243 -0.055900
C     12.359962     5.737451   161.999724 -0.159600
C     -0.297629     5.947466   162.010536 -0.035600
C      0.403229     4.837277   162.809246 -0.229900
C      0.141183     7.353502   162.460757  0.436800
O     -0.254700     8.322468   161.851125 -0.452100
O      0.940834     7.348124   163.447780 -0.352200
C      1.609073     8.555539   163.718430 -0.056800
C      0.249627     5.891557   160.532328 -0.236300
H      7.839418     4.175307   156.328449  0.087100
H      7.495032     4.929925   154.880112  0.087100
H      8.104917     5.920584   156.280429  0.087100
H      5.531026     4.358598   155.909248  0.098700
H      5.447108     6.072642   155.940129  0.098700
H      6.317061     6.806157   159.412535  0.097400
H      7.564762     6.440482   158.275774  0.097400
H      6.226431     7.377343   157.934065  0.097400
H      1.566786     5.698458   157.437144  0.107100
H      1.781452     5.131646   155.751412  0.107100
H      1.794314     3.968552   157.082108  0.107100
H      6.503836     3.175854   157.849728  0.120800
H      5.030379     3.346944   158.420774  0.120800
H      4.287010     3.868808   160.719189  0.102900
H      5.235319     5.254340   160.934815  0.102900
H      5.306648     3.780446   161.954040  0.102900
H      6.804518    -0.311507   161.309431  0.101900
H      5.299249    -0.319094   160.495849  0.101900
H      5.388531    -0.054591   162.354839  0.101900
H      7.519803     5.215345   160.591794  0.119600
H      8.290363     4.417743   159.182361  0.119600
H      7.444674     2.737344   162.390940  0.105000
H      8.919520     2.626128   163.171061  0.105000
H      8.107865     4.179410   163.036137  0.105000
H      9.572768    13.207983   161.686708  0.108600
H     11.053939    -0.159942   161.116125  0.108600
H      9.726569    -0.484631   159.949130  0.108600
H     10.184778     5.274214   160.530973  0.119000
H      9.828879     5.351381   162.207079  0.119000
H     11.221579     2.463114   162.503328  0.102400
H     12.640833     3.003100   163.056738  0.102400
H     11.230299     3.678058   163.758620  0.102400
H     11.785764     4.086579   157.134500  0.101200
H     13.426661     4.154917   157.871810  0.101200
H     12.543915     2.612451   157.933812  0.101200
H     11.995478     6.580326   161.415843  0.122000
H     11.916249     5.982014   163.020787  0.122000
H      0.011540     4.721215   163.789303  0.099800
H      0.404130     3.897897   162.369420  0.099800
H      1.421163     5.053616   163.002499  0.099800
H      0.912799     9.345851   164.013814  0.101100
H      2.439515     8.415279   164.506195  0.101100
H      2.127287     9.004742   162.820189  0.101100
H      0.591867     4.936923   160.107480  0.096100
H     -0.568729     6.254065   159.824597  0.096100
H      1.114091     6.569425   160.317786  0.096100
C      3.685964     0.574447   167.679175 -0.239000
C      3.136662    13.298651   167.980730 -0.167600
C      3.332589    12.372172   166.758228 -0.029300
C      2.605705    12.979852   165.489802 -0.237800
C      4.830088    12.353081   166.392944  0.439900
O      5.282324    12.651190   165.241281 -0.448400
O      5.628295    12.096829   167.489635 -0.358300
C      6.996973    11.803545   167.295378 -0.065100
C      2.924851    10.925637   167.102028 -0.165100
C      1.524901    10.472650   167.583504 -0.009900
C      0.393317    11.364984   166.967530 -0.246800
C      1.267198     8.983083   167.216199  0.432100
O      2.178975     8.112904   167.003099 -0.452200
O     -0.011269     8.693734   167.005620 -0.355800
C     -0.565344     7.384259   166.741102 -0.056200
C      1.345549    10.663315   169.143205 -0.171000
C      1.864307     9.672761   170.335321 -0.031000
C      0.910859     8.447477   170.479308 -0.244000
C      3.321953     9.254186   170.114871  0.435200
O      3.611133     8.192923   169.694653 -0.458900
O      4.169196    10.326979   170.065450 -0.347000
C      5.555736    10.039491   170.074533 -0.066900
C      1.677957    10.515603   171.658124 -0.170400
C      2.146789    10.121829   173.109527 -0.028400
C      1.595605    11.218498   174.089124 -0.243800
C      1.448504     8.782748   173.431914  0.439600
O      1.952877     7.631367   173.312339 -0.450700
O      0.151576     8.898251   173.697758 -0.354600
C     13.572532     7.883162   174.180863 -0.055900
C      3.666407     9.985923   173.150396 -0.159600
C      4.409969    10.044514   174.463735 -0.035600
C      3.937649     9.091493   175.623148 -0.229900
C      4.435193    11.475312   174.962502  0.436800
O      5.071398    12.288438   174.335482 -0.452100
O      3.784073    11.750477   176.098333 -0.352200
C      3.747909    13.042259   176.547621 -0.056800
C      5.904651     9.551902   174.133698 -0.236300
H      3.384504     1.273359   168.439639  0.087100
H      4.768804     0.610539   167.654783  0.087100
H      3.468375     0.927792   166.695269  0.087100
H      2.077962    13.516498   168.198515  0.098700
H      3.591161    12.848102   168.849841  0.098700
H      1.602330    13.310811   165.753790  0.097400
H      3.117431    -0.343406   165.097432  0.097400
H      2.720216    12.255864   164.689079  0.097400
H      7.247851    10.735025   167.100947  0.107100
H      7.456717    12.408618   166.530363  0.107100
H      7.488400    11.960698   168.301571  0.107100
H      3.112387    10.465042   166.105955  0.120800
H      3.644069    10.465710   167.755146  0.120800
H      0.420093    11.345941   165.896379  0.102900
H     13.536183    11.031567   167.166761  0.102900
H      0.313857    12.341428   167.359168  0.102900
H     12.542956     7.475369   166.624082  0.101900
H     -0.261902     6.573188   167.426399  0.101900
H     -0.163587     7.044914   165.784011  0.101900
H      0.297440    10.837090   169.336992  0.119600
H      1.915730    11.604840   169.415183  0.119600
H      1.231533     7.502167   170.849873  0.105000
H      0.426663     8.259228   169.557734  0.105000
H      0.127821     8.737178   171.088446  0.105000
H      5.877054     9.588787   169.172924  0.108600
H      6.141638    10.914617   170.304899  0.108600
H      5.724002     9.254268   170.770892  0.108600
H      2.136155    11.489407   171.384888  0.119000
H      0.593602    10.691053   171.840916  0.119000
H      0.499579    11.452778   173.944024  0.102400
H      2.176390    12.118991   173.765499  0.102400
H      1.794170    11.014227   175.140067  0.102400
H     -0.338026     7.639755   175.189159  0.101200
H     -0.518460     7.087474   173.437430  0.101200
H     12.520374     8.339330   174.315063  0.101200
H      4.138631    10.774565   172.532514  0.122000
H      4.069028     9.153175   172.570217  0.122000
H      4.132771     8.034019   175.512209  0.099800
H      4.368092     9.347154   176.603306  0.099800
H      2.807383     9.185479   175.700880  0.099800
H      3.122428    13.144607   177.402415  0.101100
H      4.787140    13.285593   176.881042  0.101100
H      3.453037    -0.549707   175.760185  0.101100
H      6.298686    10.102165   173.228607  0.096100
H      6.508736     9.892767   174.998603  0.096100
H      5.907916     8.412364   174.004314  0.096100
C      6.696493     1.172805    54.728233 -0.239000
C      5.335310     0.812294    54.216208 -0.167600
C      4.123431     1.174562    55.161165 -0.029300
C      4.167126     0.264497    56.386462 -0.237800
C      4.221862     2.600540    55.588509  0.439900
O      3.731901     3.020394    56.611062 -0.448400
O      4.690647     3.410461    54.631115 -0.358300
C      4.626903     4.824282    54.760764 -0.065100
C      2.836274     1.059412    54.238094 -0.165100
C      1.319861     1.043858    54.761178 -0.009900
C      1.055417     2.307977    55.473417 -0.246800
C      1.157805    -0.162854    55.719902  0.432100
O      0.749725    -0.041511    56.879958 -0.452200
O      1.476302    12.840416    55.140343 -0.355800
C      1.456439    11.645957    55.917889 -0.056200
C      0.403885     0.960615    53.503512 -0.171000
C     13.095344     0.526187    53.487539 -0.031000
C     12.334164     1.119873    54.722854 -0.244000
C     12.960269    13.189369    53.449776  0.435200
O     13.575722    12.552039    52.624233 -0.458900
O     12.049847    12.649915    54.271287 -0.347000
C     11.845802    11.279583    54.084137 -0.066900
C     12.478410     0.989881    52.139998 -0.170400
C     10.959040     0.673756    51.617264 -0.028400
C      9.825527     0.751728    52.736037 -0.243800
C     10.949689    13.390066    51.091604  0.439600
O     10.229461    12.520572    51.607063 -0.450700
O     11.725230    13.217003    50.036021 -0.354600
C     11.847568    11.889465    49.561136 -0.055900
C     10.733191     1.586840    50.350281 -0.159600
C     10.180119     3.009983    50.444948 -0.035600
C     10.978676     3.875034    51.468695 -0.229900
C      8.675350     2.940822    50.779962  0.436800
O      7.812211     2.449449    49.992616 -0.452100
O      8.372256     3.693045    51.843595 -0.352200
C      6.983928     3.944872    52.072363 -0.056800
C     10.203060     3.800824    49.123394 -0.236300
H      6.788986     1.068415    55.839806  0.087100
H      7.427496     0.590940    54.243509  0.087100
H      6.891097     2.268054    54.493959  0.087100
H      5.316314    -0.246719    54.014573  0.098700
H      5.109559     1.184630    53.239972  0.098700
H      3.737443    13.456696    56.175939  0.097400
H      5.120288     0.184549    56.769728  0.097400
H      3.532441     0.688727    57.098728  0.097400
H      3.625667     5.155523    54.916711  0.107100
H      4.992576     5.250238    53.782139  0.107100
H      5.319698     5.235889    55.524418  0.107100
H      2.995470     0.086713    53.773639  0.120800
H      2.900683     1.797133    53.490489  0.120800
H      0.036858     2.240957    55.890874  0.102900
H      1.534808     2.236262    56.488517  0.102900
H      1.238886     3.319688    54.956592  0.102900
H      2.388222    11.355594    56.318641  0.101900
H      1.077236    10.819248    55.295596  0.101900
H      0.711079    11.721579    56.756840  0.101900
H      0.417855     1.964507    53.075028  0.119600
H      0.845136     0.397012    52.721567  0.119600
H     11.270874     0.854062    54.841882  0.105000
H     12.730840     0.726349    55.698129  0.105000
H     12.413364     2.179571    54.856655  0.105000
H     11.539026    11.009925    53.099952  0.108600
H     12.768888    10.625985    54.349673  0.108600
H     10.982599    11.027044    54.727239  0.108600
H     13.185445     0.893954    51.333668  0.119000
H     12.592620     2.068851    52.272733  0.119000
H      9.885811    -0.019808    53.457492  0.102400
H      8.798846     0.615999    52.246331  0.102400
H      9.779754     1.679187    53.333872  0.102400
H     12.604963    11.911618    48.763385  0.101200
H     12.312395    11.183930    50.226992  0.101200
H     10.950866    11.476235    49.185539  0.101200
H     11.688478     1.642457    49.894659  0.122000
H      9.953323     1.070385    49.754431  0.122000
H     10.945218     3.518986    52.473199  0.099800
H     10.510423     4.917431    51.457496  0.099800
H     12.018611     3.924145    51.249452  0.099800
H      6.419315     3.026397    52.259910  0.101100
H      6.625158     4.587190    51.287103  0.101100
H      6.842454     4.494658    53.004164  0.101100
H     11.150916     3.872467    48.639779  0.096100
H      9.833593     4.841447    49.242674  0.096100
H      9.530742     3.301620    48.414841  0.096100
C      7.224159    12.241871   150.323199 -0.239000
C      7.472147    11.365572   151.519793 -0.167600
C      8.339731    10.108917   151.327681 -0.029300
C      9.755260    10.496749   150.781772 -0.237800
C      8.655521     9.414349   152.747604  0.439900
O      8.991674     8.244750   152.873468 -0.448400
O      8.621405    10.201495   153.782193 -0.358300
C      9.030111     9.656527   155.014243 -0.065100
C      7.831388     9.023225   150.274345 -0.165100
C      6.439792     8.279548   150.331586 -0.009900
C      6.666174     6.955248   149.601236 -0.246800
C      6.130846     7.997288   151.846817  0.432100
O      6.376245     6.864835   152.338648 -0.452200
O      5.448478     8.920120   152.509085 -0.355800
C      5.410979     8.821922   153.903776 -0.056200
C      5.352117     9.174982   149.583157 -0.171000
C      3.926104     8.780042   149.268451 -0.031000
C      3.421545     7.895455   150.465178 -0.244000
C      3.908738     7.861083   147.969906  0.435200
O      3.188502     6.847183   148.080058 -0.458900
O      4.844688     8.027508   146.981804 -0.347000
C      4.842542     7.052231   145.875884 -0.066900
C      2.976671    10.034675   149.093770 -0.170400
C      1.503201     9.999272   148.608303 -0.028400
C      0.576434     8.915810   149.294316 -0.243800
C      1.480575     9.831998   147.123282  0.439600
O      0.960296     8.812798   146.595550 -0.450700
O      2.165442    10.770052   146.476492 -0.354600
C      2.251647    10.879302   145.056436 -0.055900
C      0.961852    11.470923   148.935020 -0.159600
C     -0.359396    12.175434   148.555259 -0.035600
C     -0.557478    13.320711   149.520066 -0.229900
C     -0.360929    12.734853   147.107308  0.436800
O      0.406093    -0.538380   146.905897 -0.452100
O     12.743145    12.361537   146.334617 -0.352200
C     12.564324    12.857349   144.963726 -0.056800
C     12.604850    11.194109   148.717060 -0.236300
H      6.356649    12.018195   149.636259  0.087100
H      6.935701    13.182877   150.726588  0.087100
H      8.084771    12.441638   149.689204  0.087100
H      6.562724    11.182873   152.052597  0.098700
H      8.004192    12.046951   152.241231  0.098700
H      9.825962    10.612895   149.708741  0.097400
H     10.453107     9.675896   151.130097  0.097400
H     10.087019    11.467119   151.259968  0.097400
H      8.270029     8.961178   155.276916  0.107100
H      9.977821     9.024972   154.894306  0.107100
H      9.197023    10.465400   155.723177  0.107100
H      8.734189     8.383062   150.221688  0.120800
H      7.804203     9.531273   149.327790  0.120800
H      7.624971     6.426297   149.827539  0.102900
H      5.985827     6.168225   149.753864  0.102900
H      6.760471     7.105055   148.493521  0.102900
H      4.545166     8.342796   154.209175  0.101900
H      5.611010     9.760050   154.342094  0.101900
H      6.238362     8.200035   154.273246  0.101900
H      5.323858    10.140585   150.165382  0.119600
H      5.875518     9.468460   148.597245  0.119600
H      2.502742     7.419224   150.351404  0.105000
H      3.288887     8.434485   151.440797  0.105000
H      4.139291     7.061024   150.645398  0.105000
H      4.909372     6.072306   146.272373  0.108600
H      5.714077     7.168190   145.217154  0.108600
H      3.884296     7.086293   145.309460  0.108600
H      2.946655    10.507736   150.112877  0.119000
H      3.596569    10.777440   148.445761  0.119000
H     -0.462904     8.965001   149.002165  0.102400
H      0.581432     9.049950   150.347145  0.102400
H      0.944631     7.921557   149.024637  0.102400
H      3.241613    10.664004   144.719128  0.101200
H      1.471827    10.205712   144.604587  0.101200
H      1.892276    11.895991   144.956629  0.101200
H      1.728399    12.184187   148.595735  0.122000
H      1.048140    11.649780   150.018346  0.122000
H     13.437527    12.925938   150.509001  0.099800
H     12.715253    -0.345280   149.242354  0.099800
H      0.215293    -0.068767   149.573018  0.099800
H     12.736617    -0.207147   144.846800  0.101100
H     11.571788    12.631294   144.623112  0.101100
H     13.360200    12.349203   144.329064  0.101100
H     12.476222    10.716505   149.686021  0.096100
H     11.665600    11.606807   148.252893  0.096100
H     12.758518    10.350754   148.036268  0.096100
C     12.653776     8.470659   138.054116 -0.239000
C     12.066836     8.241573   136.676502 -0.167600
C     12.872131     7.219829   135.806689 -0.029300
C      0.038325     7.895746   135.687369 -0.237800
C     12.876970     5.861804   136.543335  0.439900
O     11.878175     5.301064   136.887081 -0.448400
O     -0.052233     5.535903   137.029854 -0.358300
C      0.204071     4.572141   138.089237 -0.065100
C     12.153665     6.970028   134.483073 -0.165100
C     11.752667     8.073647   133.415659 -0.009900
C     10.465943     8.704910   133.962748 -0.246800
C     12.781086     9.181181   133.206157  0.432100
O     12.683633    10.316253   133.719662 -0.452200
O     -0.276256     8.596657   132.800905 -0.355800
C      0.887193     9.338301   132.528522 -0.056200
C     11.378283     7.356948   132.076540 -0.171000
C     10.808478     8.046283   130.766475 -0.031000
C      9.262193     7.740667   130.764679 -0.244000
C     10.859120     9.592985   130.862486  0.435200
O      9.787331    10.205219   130.930696 -0.458900
O     12.051238    10.203853   130.616325 -0.347000
C     12.050284    11.534051   130.361602 -0.066900
C     11.239310     7.457908   129.412297 -0.170400
C     12.703264     7.016740   128.975351 -0.028400
C     -0.493574     8.175172   129.280655 -0.243800
C     13.041927     5.791958   129.816863  0.439600
O     12.249543     4.976193   130.174788 -0.450700
O      0.147673     5.805853   130.006418 -0.354600
C      0.830824     4.704940   130.536972 -0.055900
C     12.606545     6.791201   127.415015 -0.159600
C     -0.481379     5.977729   126.668203 -0.035600
C     13.513398     6.250882   125.176201 -0.229900
C     13.558418     4.424628   126.797398  0.436800
O     12.657623     3.883614   126.166282 -0.452100
O      0.236090     3.842862   127.543705 -0.352200
C      0.161531     2.400911   127.727001 -0.056800
C      0.940886     6.451555   126.955817 -0.236300
H     13.560332     9.098470   138.095742  0.087100
H     12.917186     7.484985   138.481303  0.087100
H     11.940799     8.982589   138.714543  0.087100
H     12.015774     9.303535   136.236742  0.098700
H     11.031233     7.977704   136.691908  0.098700
H      0.566923     7.592986   134.789900  0.097400
H     -0.037591     9.022341   135.728892  0.097400
H      0.617881     7.701326   136.523299  0.097400
H      1.204301     4.619308   138.469422  0.107100
H      0.166447     3.658687   137.633106  0.107100
H     -0.583112     4.664058   138.899769  0.107100
H     11.249008     6.254466   134.557773  0.120800
H     12.993499     6.358239   133.971956  0.120800
H     10.074974     9.564312   133.342951  0.102900
H     10.607102     9.187462   134.961431  0.102900
H      9.640731     8.020674   133.983616  0.102900
H      1.072296    10.079161   133.211182  0.101900
H      1.692606     8.653113   132.749754  0.101900
H      1.020002     9.589226   131.415401  0.101900
H     10.862597     6.413565   132.278917  0.119600
H     12.335864     6.874912   131.782719  0.119600
H      8.744730     8.090335   129.878901  0.105000
H      8.863070     8.231223   131.606831  0.105000
H      8.942871     6.653198   130.875715  0.105000
H     13.118355    11.879770   130.202083  0.108600
H     11.616128    12.136534   131.184605  0.108600
H     11.386280    11.744900   129.531971  0.108600
H     10.721851     6.518622   129.166475  0.119000
H     10.947858     8.131190   128.631994  0.119000
H     -0.340607     8.415383   130.284974  0.102400
H     13.308005     9.178564   128.920153  0.102400
H      0.497467     8.087833   128.857793  0.102400
H      1.636409     4.960677   131.216192  0.101200
H      1.317611     4.265522   129.652794  0.101200
H      0.245133     3.920952   131.016474  0.101200
H     12.542159     7.757838   126.888548  0.122000
H     11.612980     6.338255   127.249191  0.122000
H     -0.346026     7.230635   124.814870  0.099800
H     12.502396     6.076718   124.911358  0.099800
H     -0.151097     5.481337   124.580442  0.099800
H     -0.238754     1.860310   126.798818  0.101100
H     -0.541136     2.157894   128.521106  0.101100
H      1.125168     1.984348   127.896904  0.101100
H      1.694439     6.093935   126.276355  0.096100
H      1.217839     6.064749   127.944380  0.096100
H      1.155442     7.589553   126.955981  0.096100
C      6.742187     6.701980    10.001211 -0.239000
C      6.096905     7.142014     8.640826 -0.167600
C      6.925562     6.741124     7.313545 -0.029300
C      6.292198     7.197025     6.025440 -0.237800
C      8.234485     7.480824     7.399315  0.439900
O      9.346940     6.900859     7.289498 -0.448400
O      8.125310     8.584787     8.025445 -0.358300
C      9.298912     9.443380     8.222263 -0.065100
C      7.134549     5.196271     7.157671 -0.165100
C      6.051737     4.095298     6.867844 -0.009900
C      4.726342     4.462949     7.666179 -0.246800
C      5.768034     4.045936     5.383008  0.432100
O      4.621766     4.141600     4.957200 -0.452200
O      6.764828     4.482007     4.645039 -0.355800
C      6.637936     4.666452     3.284995 -0.056200
C      6.544506     2.692741     7.403741 -0.171000
C      6.082931     1.336311     6.808917 -0.031000
C      4.554253     1.339769     6.886857 -0.244000
C      6.561188     0.321034     7.771165  0.435200
O      5.954256    13.456667     8.016664 -0.458900
O      7.493398     0.669164     8.610136 -0.347000
C      7.843207    -0.117991     9.699082 -0.066900
C      6.533626     0.957051     5.365938 -0.170400
C      7.977702     0.432484     5.063405 -0.028400
C      8.255917    13.157493     5.710385 -0.243800
C      7.824391     0.269664     3.499676  0.439600
O      7.353444    13.433578     3.014609 -0.450700
O      8.035364     1.371994     2.795647 -0.354600
C      8.378124     1.258718     1.437329 -0.055900
C      9.166420     1.410759     5.334405 -0.159600
C     10.723679     1.126784     5.047319 -0.035600
C     11.056642     0.677756     3.661338 -0.229900
C     11.296644     0.196241     6.097847  0.436800
O     11.946670    13.387692     5.778867 -0.452100
O     11.007501     0.573954     7.362614 -0.352200
C     11.287903    -0.288753     8.515837 -0.056800
C     11.449515     2.503775     5.161232 -0.236300
H      6.193583     7.166496    10.890751  0.087100
H      7.741805     6.980852    10.196399  0.087100
H      6.777615     5.650392    10.098726  0.087100
H      5.117376     6.738525     8.631474  0.098700
H      5.944412     8.165309     8.843568  0.098700
H      6.126535     8.269856     6.036209  0.097400
H      5.395108     6.777740     5.650727  0.097400
H      6.957858     7.009242     5.201223  0.097400
H      9.769779     9.473089     7.225795  0.107100
H     10.078547     9.059543     8.859402  0.107100
H      9.014842    10.478683     8.571441  0.107100
H      7.949885     5.093980     6.476700  0.120800
H      7.633001     5.071018     8.136190  0.120800
H      3.936854     3.729842     7.724157  0.102900
H      4.934010     4.585457     8.676976  0.102900
H      4.198104     5.298874     7.228861  0.102900
H      7.656392     4.497249     2.821903  0.101900
H      6.292435     5.643956     2.885292  0.101900
H      5.884445     3.978694     2.861575  0.101900
H      6.518367     2.751263     8.498782  0.119600
H      7.613038     2.662360     7.281324  0.119600
H      4.063714     2.156074     6.257061  0.105000
H      4.149540     1.542079     7.853228  0.105000
H      3.986093     0.469339     6.557624  0.105000
H      8.185034    13.106441     9.368099  0.108600
H      8.692411     0.217136    10.288434  0.108600
H      7.035328    -0.133473    10.426757  0.108600
H      6.330569     1.658559     4.609555  0.119000
H      5.882963     0.141710     5.004112  0.119000
H      8.791623    12.454504     5.009569  0.102400
H      8.861596    13.263727     6.684361  0.102400
H      7.364788    12.676383     6.090299  0.102400
H      7.457646     0.798679     0.868107  0.101200
H      9.205669     0.595605     1.318455  0.101200
H      8.718216     2.195898     1.018940  0.101200
H      8.848701     2.315821     4.901777  0.122000
H      9.147794     1.604168     6.408943  0.122000
H     12.157762     0.522153     3.490561  0.099800
H     10.661239    -0.303659     3.461007  0.099800
H     10.704168     1.311986     2.892903  0.099800
H     11.620342    12.935661     8.371055  0.101100
H     10.297887    -0.392560     9.021556  0.101100
H     11.852474     0.172573     9.198503  0.101100
H     11.370503     2.963140     6.148071  0.096100
H     12.527790     2.361149     5.093066  0.096100
H     11.104114     3.304299     4.493848  0.096100
C      0.350810     8.666173   120.563130 -0.239000
C     -0.252772     8.037130   119.381843 -0.167600
C     -0.369763     6.449546   119.444028 -0.029300
C      1.008462     5.796906   119.451596 -0.237800
C     13.163582     6.055882   120.791787  0.439900
O     -0.349153     5.991205   121.830071 -0.448400
O     11.853579     5.905371   120.714937 -0.358300
C     11.135562     5.713824   121.920367 -0.065100
C     12.925126     5.974538   118.188080 -0.165100
C     13.402455     5.785706   116.728527 -0.009900
C     12.089095     5.475808   115.873832 -0.246800
C      0.148821     4.501251   116.819781  0.432100
O      1.401926     4.444476   116.667472 -0.452200
O     -0.543097     3.373516   117.032597 -0.355800
C      0.116080     2.158167   117.007545 -0.056200
C     -0.073478     6.999390   116.155521 -0.171000
C      0.241724     7.070139   114.586231 -0.031000
C      0.672822     5.725765   113.960900 -0.244000
C     13.145426     7.552507   113.854891  0.435200
O     12.448185     8.458532   114.341727 -0.458900
O     12.832174     6.859341   112.777726 -0.347000
C     11.708730     7.050016   111.923335 -0.066900
C      1.474994     7.993861   114.453502 -0.170400
C      2.095137     8.588220   113.230154 -0.028400
C      2.423080     7.485801   112.279192 -0.243800
C      1.111140     9.572883   112.517223  0.439600
O      0.547961    10.453360   113.172493 -0.450700
O      0.717797     9.206266   111.220588 -0.354600
C     -0.333169     9.904656   110.511460 -0.055900
C      3.420751     9.365900   113.643239 -0.159600
C      4.144901    10.412182   112.740653 -0.035600
C      3.418226    11.703357   112.749536 -0.229900
C      4.419560     9.858126   111.341780  0.436800
O      5.461806     9.369713   110.965141 -0.452100
O      3.446044    10.134835   110.543606 -0.352200
C      3.516253     9.887619   109.093785 -0.056800
C      5.517499    10.742153   113.283777 -0.236300
H     -0.315485     8.515462   121.420673  0.087100
H      0.370461     9.742359   120.431801  0.087100
H      1.359058     8.324236   120.830298  0.087100
H      0.279835     8.387017   118.553352  0.098700
H     12.965140     8.424500   119.129256  0.098700
H      1.495540     5.987059   120.388334  0.097400
H      0.994293     4.740706   119.399074  0.097400
H      1.722576     6.149669   118.663204  0.097400
H     10.094663     5.420230   121.604546  0.107100
H     11.559024     5.013200   122.566889  0.107100
H     10.890817     6.641621   122.491448  0.107100
H     12.005545     6.513344   118.247284  0.120800
H     12.561731     4.987563   118.493178  0.120800
H     11.519624     4.811378   116.515677  0.102900
H     12.238687     4.923093   114.958303  0.102900
H     11.512420     6.361778   115.564056  0.102900
H      0.787017     2.168654   117.913728  0.101900
H     -0.575091     1.360237   117.287556  0.101900
H      0.711529     1.960242   116.108713  0.101900
H      0.808877     7.119190   116.782094  0.119600
H     13.537234     7.888132   116.412388  0.119600
H      0.627350     5.553215   112.948017  0.105000
H      0.024881     4.910529   114.289411  0.105000
H      1.672509     5.376179   114.318515  0.105000
H     11.316751     8.033764   111.798785  0.108600
H     11.834213     6.644311   110.945829  0.108600
H     10.875954     6.523139   112.297111  0.108600
H      1.193163     8.830903   115.018566  0.119000
H      2.275760     7.587091   115.064998  0.119000
H      3.153200     7.880274   111.598420  0.102400
H      1.490606     7.112717   111.811826  0.102400
H      2.891269     6.604089   112.782494  0.102400
H     13.105711    10.249968   111.221369  0.101200
H     13.328934     9.315625   109.752197  0.101200
H      0.033813    10.754677   109.936644  0.101200
H      4.179875     8.520494   113.569298  0.122000
H      3.237748     9.875825   114.610767  0.122000
H      2.672504    11.834242   111.992760  0.099800
H      2.936863    11.885593   113.729551  0.099800
H      4.008464    12.617331   112.599201  0.099800
H      2.496780     9.847524   108.675861  0.101100
H      4.062741     8.977177   108.874517  0.101100
H      4.113042    10.659051   108.605879  0.101100
H      5.529858    10.910406   114.340002  0.096100
H      5.899604    11.552362   112.596126  0.096100
H      6.128022     9.917102   113.190425  0.096100
C      6.373675     2.621030   113.819443 -0.239000
C      6.475249     3.273504   115.195088 -0.167600
C      7.337362     4.566270   115.494288 -0.029300
C      8.840756     3.984660   115.264142 -0.237800
C      7.029442     5.726526   114.489471  0.439900
O      5.917711     5.984297   114.070650 -0.448400
O      8.123652     6.408278   114.143220 -0.358300
C      7.993500     7.687670   113.498861 -0.065100
C      6.980051     5.086039   116.971110 -0.165100
C      7.454992     6.463033   117.602300 -0.009900
C      8.973659     6.621303   117.378882 -0.246800
C      6.869042     7.708622   116.905719  0.432100
O      5.793370     7.646087   116.275968 -0.452200
O      7.626580     8.814442   117.038222 -0.355800
C      7.064118    10.028650   116.807362 -0.056200
C      7.286811     6.488827   119.154305 -0.171000
C      5.926767     6.310778   119.952633 -0.031000
C      4.986456     7.332854   119.268495 -0.244000
C      5.447197     4.891574   119.807925  0.435200
O      6.117420     3.952115   120.249161 -0.458900
O      4.212882     4.806246   119.402511 -0.347000
C      3.658601     3.485465   119.219514 -0.066900
C      6.032873     6.816427   121.454011 -0.170400
C      5.831911     5.954871   122.790005 -0.028400
C      4.358996     5.476372   122.764662 -0.243800
C      6.883173     4.831374   122.975244  0.439600
O      8.091837     5.077029   122.781691 -0.450700
O      6.385160     3.661052   123.347574 -0.354600
C      7.246738     2.536424   123.587124 -0.055900
C      6.018415     6.981556   123.924122 -0.159600
C      6.424694     6.543544   125.406173 -0.035600
C      6.218940     7.700694   126.378238 -0.229900
C      7.942746     6.170138   125.508224  0.436800
O      8.875673     6.997424   125.568898 -0.452100
O      8.163431     4.882274   125.844189 -0.352200
C      9.455353     4.410924   125.918083 -0.056800
C      5.570004     5.462197   125.928630 -0.236300
H      7.257356     2.053781   113.533551  0.087100
H      6.298372     3.366788   112.991028  0.087100
H      5.528037     1.952928   113.810955  0.087100
H      6.675885     2.485706   115.917188  0.098700
H      5.387820     3.591241   115.369304  0.098700
H      8.970464     3.404107   114.352193  0.097400
H      9.295205     3.520610   116.146762  0.097400
H      9.481561     4.821947   115.132858  0.097400
H      7.382734     7.549162   112.569408  0.107100
H      8.931833     8.157793   113.317794  0.107100
H      7.375729     8.318158   114.098557  0.107100
H      7.168135     4.214304   117.551020  0.120800
H      5.869641     5.188571   116.948316  0.120800
H      9.167938     6.637339   116.297203  0.102900
H      9.561375     5.760753   117.807354  0.102900
H      9.333420     7.529574   117.789145  0.102900
H      7.426911    10.610292   117.641539  0.101900
H      5.935160    10.184279   116.717291  0.101900
H      7.540146    10.387437   115.934533  0.101900
H      7.973294     5.815285   119.661757  0.119600
H      7.535012     7.497382   119.466083  0.119600
H      4.109998     7.554520   119.929249  0.105000
H      4.675669     6.992515   118.290415  0.105000
H      5.385001     8.335485   119.122220  0.105000
H      4.319018     2.672787   118.866662  0.108600
H      2.808925     3.545221   118.504282  0.108600
H      3.328837     3.062914   120.103529  0.108600
H      6.978089     7.375159   121.548960  0.119000
H      5.374908     7.657270   121.616375  0.119000
H      4.032596     4.978710   123.656100  0.102400
H      3.649976     6.328878   122.546797  0.102400
H      4.269389     4.676242   121.987484  0.102400
H      7.889579     2.606189   124.407841  0.101200
H      6.660865     1.628266   123.738585  0.101200
H      7.928665     2.374950   122.723791  0.101200
H      5.144675     7.607374   123.988134  0.122000
H      6.866841     7.590042   123.636769  0.122000
H      6.989030     8.471097   126.274509  0.099800
H      5.314247     8.253364   126.104959  0.099800
H      6.104585     7.517404   127.424775  0.099800
H      9.735030     3.422547   126.353377  0.101100
H      9.946028     5.180388   126.513171  0.101100
H      9.863790     4.340811   124.907186  0.101100
H      5.719356     4.467207   125.469659  0.096100
H      5.700383     5.228563   126.974869  0.096100
H      4.543758     5.699172   125.866127  0.096100
C      1.671887     8.601661   241.544515 -0.239000
C      2.154069    10.115145   241.700673 -0.167600
C      2.117452    10.760820   243.117696 -0.029300
C      2.748317     9.815811   244.155897 -0.237800
C      2.818848    12.099033   243.134116  0.439900
O      2.761035    12.867377   244.081069 -0.448400
O      3.369685    12.392428   241.920811 -0.358300
C      3.860237    -0.453062   241.775915 -0.065100
C      0.599973    10.942892   243.630677 -0.165100
C     -0.415110    11.912381   242.954379 -0.009900
C      0.202694    13.162270   242.270840 -0.246800
C     12.926684    11.221632   241.834987  0.432100
O     11.994687    11.824840   241.333393 -0.452200
O     13.252121     9.947760   241.659932 -0.355800
C     12.370277     9.158397   240.838176 -0.056200
C     12.734878    12.399444   244.030007 -0.171000
C     11.899644    11.491072   245.041604 -0.031000
C     11.464650    10.269576   244.350223 -0.244000
C     12.748721    11.205329   246.212972  0.435200
O     13.007733    12.067605   247.042114 -0.458900
O     12.852352     9.906303   246.426406 -0.347000
C     13.565245     9.404047   247.588230 -0.066900
C     10.587163    12.298789   245.466430 -0.170400
C      9.650461    11.903147   246.716115 -0.028400
C      8.401676    12.635023   246.406574 -0.243800
C      9.290863    10.390247   246.707396  0.439600
O      8.638428     9.980442   245.726684 -0.450700
O      9.771833     9.632476   247.640070 -0.354600
C      9.576658     8.260505   247.560127 -0.055900
C     10.231159    12.410145   248.084041 -0.159600
C      9.377099    12.537153   249.414820 -0.035600
C      8.327325    11.415393   249.567394 -0.229900
C      8.710742    -0.239982   249.419478  0.436800
O      9.370388     0.769440   249.469653 -0.452100
O      7.402245    -0.347617   249.526778 -0.352200
C      6.745875     0.829019   249.078085 -0.056800
C     10.321203    12.568629   250.633484 -0.236300
H      1.286696     8.573422   240.527799  0.087100
H      0.829496     8.441138   242.183039  0.087100
H      2.442709     7.767161   241.754783  0.087100
H      3.273478    10.150100   241.446554  0.098700
H      1.534936    10.785391   241.044397  0.098700
H      2.256187     8.842942   244.186526  0.097400
H      2.819756    10.166493   245.167271  0.097400
H      3.690620     9.459247   243.710300  0.097400
H      3.197676     0.253348   242.218183  0.107100
H      3.878236    -0.328464   240.697682  0.107100
H      4.807196    -0.192413   242.206183  0.107100
H      0.732770    11.295025   244.663364  0.120800
H      0.169375    10.005728   243.808759  0.120800
H     -0.564461    -0.439307   241.798264  0.102900
H      0.646881    -0.430206   243.080816  0.102900
H      0.954587    12.856984   241.582450  0.102900
H     11.362506     9.175673   241.332717  0.101900
H     12.549840     8.120840   240.839170  0.101900
H     12.376544     9.532306   239.824601  0.101900
H     13.144917    13.251395   244.574345  0.119600
H     12.074625    12.988988   243.446786  0.119600
H     10.789240    10.517917   243.531513  0.105000
H     10.921577     9.570490   244.988507  0.105000
H     12.290161     9.654607   244.036606  0.105000
H     13.040727     9.611387   248.511436  0.108600
H     13.412538     8.303085   247.588030  0.108600
H      0.451909     9.645446   247.662728  0.108600
H     10.889510    13.325857   245.534760  0.119000
H     10.002834    12.287392   244.561834  0.119000
H      8.544221    -0.510653   246.287260  0.102400
H      7.942983    12.174860   245.634008  0.102400
H      7.731692    12.483654   247.270467  0.102400
H      9.802489     7.911947   246.531608  0.101200
H     10.082895     7.760651   248.357786  0.101200
H      8.540698     7.947399   247.555784  0.101200
H     11.192698    11.855970   248.309890  0.122000
H     10.701225    13.387371   247.882401  0.122000
H      7.479989    11.344654   248.896720  0.099800
H      8.845132    10.433522   249.505684  0.099800
H      7.972253    11.445226   250.588835  0.099800
H      5.730832     0.583047   248.958984  0.101100
H      6.959780     1.106895   248.073388  0.101100
H      6.824659     1.742168   249.698791  0.101100
H      9.710131    12.412263   251.562429  0.096100
H     10.767269    13.549715   250.768380  0.096100
H     11.171222    11.947441   250.725419  0.096100
C      4.048743     6.053041   222.551094 -0.239000
C      3.025593     5.165703   223.173262 -0.167600
C      2.576721     5.595105   224.650767 -0.029300
C      1.780546     6.980760   224.555430 -0.237800
C      1.617353     4.587350   225.250902  0.439900
O      0.959771     4.880012   226.254007 -0.448400
O      1.408478     3.508690   224.500686 -0.358300
C      0.751331     2.433563   225.136051 -0.065100
C      3.759527     5.766210   225.684474 -0.165100
C      4.769195     4.744259   226.257280 -0.009900
C      4.104815     3.733018   227.240103 -0.246800
C      5.264915     3.878389   225.098086  0.432100
O      5.078977     2.679521   225.003930 -0.452200
O      6.028878     4.562392   224.304476 -0.355800
C      6.529778     3.857623   223.188283 -0.056200
C      5.941762     5.561087   226.965704 -0.171000
C      7.111644     4.994005   227.766622 -0.031000
C      6.582597     4.273398   228.971208 -0.244000
C      8.000704     6.182795   228.276260  0.435200
O      8.242457     7.164220   227.543362 -0.458900
O      8.312974     6.140536   229.583595 -0.347000
C      9.067307     7.212139   230.192023 -0.066900
C      8.046330     4.018870   226.900545 -0.170400
C      9.424526     3.481065   227.303425 -0.028400
C      9.734109     2.324259   226.244330 -0.243800
C     10.539177     4.608157   227.151269  0.439600
O     10.850785     5.410138   228.009975 -0.450700
O     11.107017     4.689556   225.911693 -0.354600
C     12.006229     5.677850   225.498183 -0.055900
C      9.413070     2.922676   228.744503 -0.159600
C     10.390529     1.762510   229.220094 -0.035600
C      9.867354     0.391501   228.706129 -0.229900
C     10.396154     1.732353   230.731722  0.436800
O     11.189356     0.995631   231.343070 -0.452100
O      9.309555     2.188128   231.286930 -0.352200
C      9.176216     2.196489   232.729425 -0.056800
C     11.906316     2.048784   228.890642 -0.236300
H      4.931069     6.186490   223.073591  0.087100
H      3.607820     7.015178   222.226545  0.087100
H      4.204946     5.633024   221.544728  0.087100
H      2.143677     5.085858   222.549930  0.098700
H      3.443652     4.176808   223.203244  0.098700
H      2.461762     7.765561   224.505832  0.097400
H      1.155814     7.207644   225.449664  0.097400
H      1.172993     7.130083   223.631391  0.097400
H      1.431355     1.577399   224.961940  0.107100
H      0.664847     2.562116   226.197059  0.107100
H     -0.167247     2.263087   224.632176  0.107100
H      4.326727     6.498788   225.168913  0.120800
H      3.298961     6.344009   226.501063  0.120800
H      3.195922     3.223617   226.860796  0.102900
H      3.738566     4.204918   228.103495  0.102900
H      4.779294     2.942668   227.410093  0.102900
H      5.799234     3.495743   222.404888  0.101900
H      7.243512     4.438232   222.614290  0.101900
H      6.929199     2.864038   223.525956  0.101900
H      6.364835     6.276150   226.141853  0.119600
H      5.413057     6.269150   227.598195  0.119600
H      7.288095     4.128187   229.866197  0.105000
H      6.226984     3.302262   228.748469  0.105000
H      5.696708     4.744585   229.337857  0.105000
H      8.949812     8.180535   229.678094  0.108600
H     10.078799     6.905950   229.893441  0.108600
H      9.060689     7.379886   231.222198  0.108600
H      8.125151     4.505787   225.957885  0.119000
H      7.412539     3.197274   226.664647  0.119000
H     10.681000     1.850464   226.337980  0.102400
H      8.955869     1.603322   226.222314  0.102400
H      9.664394     2.671153   225.235785  0.102400
H     12.878056     5.554373   226.190955  0.101200
H     11.514328     6.659599   225.469374  0.101200
H     12.369427     5.578075   224.442467  0.101200
H      9.528263     3.864355   229.325400  0.122000
H      8.410792     2.618848   228.978862  0.122000
H      8.801984     0.322701   228.537994  0.099800
H     10.060762    -0.370561   229.457249  0.099800
H     10.350169     0.085918   227.755720  0.099800
H      9.904975     2.883916   233.083459  0.101100
H      9.506594     1.269474   233.151452  0.101100
H      8.139071     2.393530   233.011441  0.101100
H     12.224551     2.151241   227.875290  0.096100
H     12.198103     2.993060   229.300862  0.096100
H     12.666816     1.350408   229.214776  0.096100
C     11.090597    12.340914   185.019521 -0.239000
C     10.202703    11.621087   186.075699 -0.167600
C     10.434604    10.056325   186.253601 -0.029300
C     10.367881     9.291379   184.962832 -0.237800
C     11.914879     9.968583   186.779049  0.439900
O     12.362391    10.845526   187.565569 -0.448400
O     12.390783     8.688054   186.585389 -0.358300
C     13.594156     8.261545   187.158714 -0.065100
C      9.579657     9.462024   187.373406 -0.165100
C      7.996715     9.616662   187.409103 -0.009900
C      7.359933     9.485287   186.017640 -0.246800
C      7.542862     8.397819   188.288121  0.432100
O      6.531830     7.733683   188.038113 -0.452200
O      8.257399     8.277222   189.389685 -0.355800
C      7.979150     7.351619   190.407560 -0.056200
C      7.511879    10.990566   188.058370 -0.171000
C      6.091705    11.260604   188.745256 -0.031000
C      6.051496    12.754739   189.074808 -0.244000
C      4.985652    10.957908   187.734981  0.435200
O      4.707759    11.678994   186.799369 -0.458900
O      4.572520     9.760585   187.858320 -0.347000
C      3.555402     9.169416   187.124487 -0.066900
C      6.003778    10.419323   190.113131 -0.170400
C      4.762220    10.487248   191.197874 -0.028400
C      4.299500     9.039977   191.496643 -0.243800
C      5.353347    10.966237   192.493735  0.439600
O      5.137253    10.443972   193.542665 -0.450700
O      6.146916    12.023435   192.335398 -0.354600
C      7.041263    12.561598   193.346370 -0.055900
C      3.581195    11.569146   190.968628 -0.159600
C      2.190267    11.499299   191.607942 -0.035600
C      2.204627    11.319754   193.148521 -0.229900
C      1.252354    10.491413   190.952282  0.436800
O      1.586670     9.749049   190.005908 -0.452100
O     -0.116325    10.789484   191.142062 -0.352200
C     13.103085     9.843786   190.666377 -0.056800
C      1.599339    12.942480   191.380641 -0.236300
H     10.514644    13.197958   184.778205  0.087100
H     12.034107    12.600376   185.408486  0.087100
H     11.217678    11.740393   184.096633  0.087100
H     10.216773    12.228524   186.925218  0.098700
H      9.171738    11.667372   185.677149  0.098700
H     11.294824     9.220966   184.366058  0.097400
H     10.169354     8.258424   185.077376  0.097400
H      9.553929     9.721846   184.358366  0.097400
H     -0.446548     7.200190   186.988194  0.107100
H     -0.489429     8.372480   188.219512  0.107100
H      0.337933     8.922830   186.910815  0.107100
H      9.911872     8.416285   187.426237  0.120800
H      9.999789     9.978171   188.263869  0.120800
H      7.801286     8.652115   185.498403  0.102900
H      6.323622     9.065585   186.181454  0.102900
H      7.364645    10.416209   185.445924  0.102900
H      7.595134     6.384347   190.110273  0.101900
H      7.288226     7.862824   191.065609  0.101900
H      8.966944     7.205894   190.949363  0.101900
H      7.730477    11.709061   187.309207  0.119600
H      8.260016    11.240004   188.797290  0.119600
H      6.581387    13.094020   190.005509  0.105000
H      6.496315    13.287862   188.232979  0.105000
H      4.995142    13.117610   189.143458  0.105000
H      3.788816     8.100901   187.130633  0.108600
H      2.549404     9.284837   187.558245  0.108600
H      3.563452     9.455888   186.070668  0.108600
H      6.009493     9.359383   189.874006  0.119000
H      6.934559    10.617148   190.619851  0.119000
H      4.959557     8.273004   191.766692  0.102400
H      3.864470     8.636928   190.579938  0.102400
H      3.562910     8.985715   192.247358  0.102400
H      7.395120    11.721677   193.940579  0.101200
H      7.833170    13.120554   192.887490  0.101200
H      6.567922    13.206618   194.016525  0.101200
H      3.358676    11.706979   189.860630  0.122000
H      3.971246    12.484762   191.393279  0.122000
H      2.819298    12.028662   193.713528  0.099800
H      2.405829    10.250308   193.488890  0.099800
H      1.290495    11.376863   193.691786  0.099800
H     13.009553     9.851493   189.568514  0.101100
H     13.547650     8.928170   190.858309  0.101100
H     12.163954     9.877958   191.157470  0.101100
H      1.535707    13.178053   190.335257  0.096100
H      0.533253    12.950724   191.721482  0.096100
H      2.232849    -0.569811   191.875239  0.096100
C      0.019027    13.049636    85.608941 -0.239000
C      0.215201    -0.255559    84.392409 -0.167600
C     -0.260346     1.219264    84.460192 -0.029300
C     12.351207     1.165227    84.266944 -0.237800
C      0.068054     1.870715    85.822678  0.439900
O     13.500425     2.733100    86.310421 -0.448400
O      1.330691     1.658472    86.331707 -0.358300
C      1.815932     2.298348    87.540287 -0.065100
C      0.309412     2.283793    83.349907 -0.165100
C      0.571507     1.879880    81.910701 -0.009900
C      1.866155     1.002846    81.796717 -0.246800
C     13.527851     1.247000    81.280128  0.432100
O     -0.594369     0.076787    80.950567 -0.452200
O     12.542873     2.002990    81.244032 -0.355800
C     11.382493     1.590378    80.578562 -0.056200
C      0.911808     3.267220    81.138376 -0.171000
C      1.296116     3.392597    79.627038 -0.031000
C      2.801915     3.527752    79.540118 -0.244000
C      0.851712     2.175288    78.785902  0.435200
O     -0.225532     2.046427    78.276075 -0.458900
O      1.882417     1.242171    78.602784 -0.347000
C      1.573127     0.152179    77.858263 -0.066900
C      0.630274     4.735470    79.073910 -0.170400
C      1.012802     5.436805    77.758207 -0.028400
C      0.489178     4.511603    76.653707 -0.243800
C      2.501495     5.782017    77.539842  0.439600
O      3.066754     5.284726    76.614823 -0.450700
O      3.086077     6.640102    78.383052 -0.354600
C      4.451395     7.051344    78.116718 -0.055900
C      0.230641     6.794908    77.677051 -0.159600
C      0.258735     7.880673    76.575140 -0.035600
C      1.682601     8.439028    76.367676 -0.229900
C     -0.459353     7.368168    75.255234  0.436800
O     12.589749     6.888479    75.258552 -0.452100
O      0.296363     7.501361    74.141058 -0.352200
C     -0.282301     7.373618    72.864217 -0.056800
C     13.510585     9.035942    77.120633 -0.236300
H     13.225666    12.489612    85.615033  0.087100
H      0.679479    12.219706    85.594925  0.087100
H      0.131472    -0.552344    86.445496  0.087100
H      1.303767    -0.235538    84.327895  0.098700
H     -0.136388    13.451152    83.453455  0.098700
H     11.911442     0.587810    85.118256  0.097400
H     12.097174     0.618198    83.359636  0.097400
H     11.898478     2.133590    84.023642  0.097400
H      2.768189     1.908244    87.779843  0.107100
H      1.899078     3.356073    87.349025  0.107100
H      1.180687     2.151686    88.424779  0.107100
H      1.240424     2.713539    83.785464  0.120800
H     -0.453239     3.055891    83.297840  0.120800
H      2.064752     0.766247    80.780503  0.102900
H      1.785133    -0.040435    82.155728  0.102900
H      2.712689     1.527452    82.304275  0.102900
H     11.604941     1.454394    79.512100  0.101900
H     10.572173     2.355043    80.676692  0.101900
H     11.015265     0.664382    80.957098  0.101900
H      0.007417     3.869569    81.176935  0.119600
H      1.722707     3.833032    81.680573  0.119600
H      3.301511     3.304803    78.577054  0.105000
H      3.138289     4.515750    79.947998  0.105000
H      3.354237     2.815690    80.135067  0.105000
H      2.424239    -0.420989    77.538463  0.108600
H      1.096776    -0.523647    78.533651  0.108600
H      1.123957     0.406351    76.910785  0.108600
H      0.805473     5.355939    79.926124  0.119000
H     -0.431461     4.496192    79.059772  0.119000
H      0.827066     4.976812    75.711947  0.102400
H      0.911985     3.424624    76.590976  0.102400
H     13.555792     4.546103    76.667202  0.102400
H      5.109047     6.195780    78.102021  0.101200
H      4.857030     7.668909    78.907374  0.101200
H      4.556438     7.588342    77.202368  0.101200
H      0.545719     7.345408    78.538756  0.122000
H     13.378871     6.496630    77.739495  0.122000
H      2.177396     8.652591    77.318756  0.099800
H      1.759840     9.352087    75.750561  0.099800
H      2.294303     7.701948    75.871566  0.099800
H      0.412471     7.617212    72.062579  0.101100
H     -0.587826     6.307611    72.702059  0.101100
H     13.101103     8.050675    72.830151  0.101100
H     13.482054     9.833790    76.339850  0.096100
H     -0.563081     9.440453    78.105869  0.096100
H     12.469827     8.666913    77.146627  0.096100
C      9.362560    13.479077    56.409631 -0.239000
C      8.514948    13.039570    57.614064 -0.167600
C      8.975135    -0.489035    58.948171 -0.029300
C      8.038606    13.139232    60.042819 -0.237800
C     10.359213    13.069004    59.421017  0.439900
O     10.559104    11.828053    59.502419 -0.448400
O     11.312766    -0.110826    59.535896 -0.358300
C     12.722163    -0.361436    59.650751 -0.065100
C      8.907308     1.035836    58.768603 -0.165100
C      8.606300     2.068206    59.938098 -0.009900
C      8.822623     3.470429    59.219427 -0.246800
C      7.178465     1.775844    60.408258  0.432100
O      6.888149     1.318108    61.491285 -0.452200
O      6.348163     2.176455    59.484872 -0.355800
C      5.002291     1.954479    59.739688 -0.056200
C      9.617418     1.996577    61.174319 -0.171000
C      9.793150     3.223038    62.258128 -0.031000
C     10.439643     2.636335    63.524686 -0.244000
C     10.838171     4.244102    61.695678  0.435200
O     12.032548     3.990511    61.584022 -0.458900
O     10.324513     5.376761    61.247731 -0.347000
C     11.174796     6.500382    60.963025 -0.066900
C      8.366705     3.818932    62.634208 -0.170400
C      8.184326     5.217176    63.434480 -0.028400
C      9.374748     5.743837    64.266181 -0.243800
C      7.846293     6.269098    62.385387  0.439600
O      6.841530     6.066387    61.643194 -0.450700
O      8.550574     7.456010    62.443990 -0.354600
C      8.026591     8.657872    61.753033 -0.055900
C      6.955395     5.109954    64.442877 -0.159600
C      7.065542     4.365436    65.783146 -0.035600
C      5.635306     4.461461    66.428618 -0.229900
C      7.908650     5.148179    66.770704  0.436800
O      7.572691     6.304173    67.152583 -0.452100
O      8.895756     4.355282    67.248202 -0.352200
C      9.807266     4.813104    68.161668 -0.056800
C      7.423884     2.921743    65.688124 -0.236300
H     10.345791    13.263848    56.659523  0.087100
H      9.234765     0.300761    56.026826  0.087100
H      9.291439    12.806851    55.494538  0.087100
H      7.478381    13.386043    57.405972  0.098700
H      8.549642    11.988124    57.782377  0.098700
H      8.171629    12.081425    60.202422  0.097400
H      8.175449    -0.551741    61.032206  0.097400
H      7.020856    13.234094    59.784543  0.097400
H     12.938355    13.432409    60.725477  0.107100
H     13.261859     0.579143    59.475450  0.107100
H     13.060227    13.037015    58.988630  0.107100
H      8.081208     1.275204    58.055339  0.120800
H      9.803064     1.403862    58.208245  0.120800
H      9.791208     3.789689    58.851770  0.102900
H      8.237314     3.451315    58.307255  0.102900
H      8.346948     4.303497    59.842372  0.102900
H      4.438830     2.226347    58.866172  0.101900
H      4.754349     2.502929    60.604348  0.101900
H      4.762701     0.901570    60.031723  0.101900
H     10.644268     1.948592    60.776644  0.119600
H      9.470973     1.122081    61.752786  0.119600
H      9.950905     1.726102    63.810250  0.105000
H     10.579496     3.363124    64.317014  0.105000
H     11.462813     2.344544    63.355796  0.105000
H     11.907751     6.221442    60.213651  0.108600
H     10.608464     7.439866    60.768424  0.108600
H     11.807652     6.616859    61.871758  0.108600
H      7.836628     3.004620    63.091518  0.119000
H      7.704835     3.844241    61.766972  0.119000
H      9.731488     5.102542    65.010584  0.102400
H      9.104416     6.701071    64.715098  0.102400
H     10.187033     5.853645    63.580222  0.102400
H      8.364316     8.602747    60.726601  0.101200
H      8.410731     9.596847    62.235493  0.101200
H      6.949722     8.701413    61.823784  0.101200
H      6.136067     4.688634    63.850846  0.122000
H      6.764966     6.172901    64.589546  0.122000
H      4.951683     3.879192    65.903961  0.099800
H      5.179650     5.456527    66.460479  0.099800
H      5.464344     3.903472    67.360658  0.099800
H     10.430799     5.582480    67.605001  0.101100
H     10.518669     4.034762    68.502541  0.101100
H      9.398719     5.197661    69.092074  0.101100
H      6.834152     2.537412    64.879087  0.096100
H      7.205376     2.372767    66.604767  0.096100
H      8.435984     2.797941    65.289156  0.096100
C      8.964397     7.705903   173.809464 -0.239000
C     10.095824     7.325669   172.893164 -0.167600
C      9.724646     7.484817   171.397029 -0.029300
C     10.873632     7.144491   170.471965 -0.237800
C      8.579254     6.501744   171.082359  0.439900
O      8.849337     5.298344   170.872936 -0.448400
O      7.351037     6.987018   170.872826 -0.358300
C      6.188780     6.150664   170.603242 -0.065100
C      9.211705     8.901701   171.085769 -0.165100
C      9.996038    10.202201   171.005330 -0.009900
C     11.127354    10.441575   172.116602 -0.246800
C     10.795895    10.116535   169.663762  0.432100
O     12.013944    10.308374   169.514949 -0.452200
O      9.996656    10.052997   168.621149 -0.355800
C     10.490820    10.010364   167.295678 -0.056200
C      8.875757    11.321137   170.893102 -0.171000
C      9.225387    12.857252   170.838438 -0.031000
C      7.868546    13.523689   170.865318 -0.244000
C      9.955977    13.243615   172.213721  0.435200
O     10.954183    -0.227396   172.316747 -0.458900
O      9.161294    12.940520   173.233322 -0.347000
C      9.528017    13.188651   174.571562 -0.066900
C     10.066539    13.152803   169.556109 -0.170400
C     10.478143     0.352207   168.872147 -0.028400
C     11.404065    -0.066956   167.678357 -0.243800
C      9.164446     0.998220   168.314930  0.439600
O      8.369753     1.634391   168.962284 -0.450700
O      9.057162     0.679937   166.936106 -0.354600
C      7.935170     1.169869   166.163365 -0.055900
C     11.231111     1.243771   169.842190 -0.159600
C     11.969282     2.503934   169.297151 -0.035600
C     12.579084     3.317908   170.382203 -0.229900
C     13.173939     2.140990   168.433579  0.436800
O     -0.120500     1.432859   168.885260 -0.452100
O     13.268880     2.773896   167.267474 -0.352200
C      0.186387     2.633956   166.437111 -0.056800
C     11.036599     3.470860   168.520970 -0.236300
H      8.055690     7.358923   173.339776  0.087100
H      8.883128     8.791102   174.148984  0.087100
H      8.993807     7.101619   174.742061  0.087100
H     10.956783     7.980524   172.970650  0.098700
H     10.394659     6.321118   173.140557  0.098700
H     10.710517     7.319495   169.418996  0.097400
H     11.233219     6.101750   170.422848  0.097400
H     11.715475     7.701628   170.745802  0.097400
H      5.246748     6.745125   170.630914  0.107100
H      6.311800     5.679727   169.583452  0.107100
H      6.047229     5.376392   171.358699  0.107100
H      8.694374     8.795119   170.135312  0.120800
H      8.402337     9.126461   171.743254  0.120800
H     11.765442    11.355825   172.013010  0.102900
H     11.740704     9.590658   172.131759  0.102900
H     10.641145    10.636427   173.065314  0.102900
H     11.171996     9.222131   167.050713  0.101900
H     10.784466    11.004340   166.906576  0.101900
H      9.627324     9.801924   166.615179  0.101900
H      8.355097    11.067291   170.069382  0.119600
H      8.229206    11.245688   171.809117  0.119600
H      8.007760     0.369876   171.060157  0.105000
H      7.359250    13.470419   169.889189  0.105000
H      7.209592    13.080197   171.612980  0.105000
H      8.822174    12.744334   175.322322  0.108600
H      9.459781     0.074622   174.662973  0.108600
H     10.634197    13.034587   174.812887  0.108600
H     11.025275    12.770568   169.963760  0.119000
H      9.793789    12.514045   168.783248  0.119000
H     10.859061    13.502936   166.997824  0.102400
H     11.753729     0.805133   167.112267  0.102400
H     12.278136    13.584977   167.951925  0.102400
H      7.774390     0.629782   165.220709  0.101200
H      8.148925     2.208503   165.875801  0.101200
H      6.921576     1.264077   166.644742  0.101200
H     10.587097     1.403091   170.746677  0.122000
H     11.999679     0.712551   170.287992  0.122000
H     11.902358     3.698715   171.068037  0.099800
H     13.317902     4.003654   170.135801  0.099800
H     13.236416     2.605996   170.982030  0.099800
H      1.142512     2.795724   166.928142  0.101100
H      0.017641     3.381600   165.710950  0.101100
H      0.246581     1.671568   166.027886  0.101100
H     10.848111     3.277426   167.494610  0.096100
H     11.319719     4.509541   168.734724  0.096100
H     10.040566     3.470964   168.904130  0.096100
C      1.822604    11.089664     1.269573 -0.239000
C      0.308681    10.924708     0.986016 -0.167600
C     13.544234    10.868325     2.170786 -0.029300
C     -0.580610    12.160225     2.888031 -0.237800
C     12.106882    10.529348     1.583121  0.439900
O     11.215623    11.358211     1.733428 -0.448400
O     12.080865     9.374047     0.835658 -0.358300
C     10.786123     8.896437     0.505498 -0.065100
C     -0.238109     9.681948     3.152850 -0.165100
C     13.443835     9.480712     4.607373 -0.009900
C     11.878757     9.769421     4.633871 -0.246800
C     -0.537212     7.993205     5.020835  0.432100
O      0.400061     7.299574     4.567286 -0.452200
O     12.602289     7.494644     5.780171 -0.355800
C     12.507243     6.178303     6.032528 -0.056200
C      0.047783    10.445789     5.600300 -0.171000
C      0.154964    10.174573     7.164284 -0.031000
C     12.947573    10.035241     7.759084 -0.244000
C      1.087642     8.952125     7.375518  0.435200
O      0.878304     8.137047     8.273446 -0.458900
O      2.071508     8.846977     6.532906 -0.347000
C      2.955962     7.785790     6.474700 -0.066900
C      0.726272    11.474275     7.932899 -0.170400
C      2.273850    11.899253     8.062772 -0.028400
C      2.343378    13.298123     8.500489 -0.243800
C      2.885409    11.904435     6.653690  0.439600
O      2.442653    12.583290     5.743649 -0.450700
O      3.962780    11.004641     6.437637 -0.354600
C      4.664769    10.962828     5.196825 -0.055900
C      3.203597    10.966085     8.966659 -0.159600
C      2.904560    10.763531    10.531801 -0.035600
C      1.923684     9.625436    10.748023 -0.229900
C      2.185728    11.996470    11.233774  0.436800
O      0.998738    12.017305    11.551381 -0.452100
O      2.999634    12.796430    11.715657 -0.352200
C      2.703563    13.546983    12.819950 -0.056800
C      4.191306    10.210396    11.179188 -0.236300
H      2.240171    10.630944     2.165082  0.087100
H      2.446382    10.784964     0.381971  0.087100
H      1.921769    12.181999     1.418299  0.087100
H      0.241881    10.027144     0.408077  0.098700
H      0.022340    11.777647     0.348828  0.098700
H     13.456717    12.935117     2.150728  0.097400
H      0.414737    12.323481     3.330208  0.097400
H     12.822333    12.430021     3.623623  0.097400
H     10.367077     9.390958    -0.314022  0.107100
H     10.839320     7.787771     0.436176  0.107100
H     10.179367     9.100317     1.352481  0.107100
H      0.798128     9.411524     3.092569  0.120800
H     13.537196     8.856730     2.582492  0.120800
H     11.630104    10.824485     4.628185  0.102900
H     11.505386     9.094465     3.878424  0.102900
H     11.288012     9.485928     5.507948  0.102900
H     11.439700     5.921903     6.008564  0.101900
H     12.855944     5.961151     7.034978  0.101900
H     13.088824     5.622273     5.277263  0.101900
H      1.029497    10.548886     5.227826  0.119600
H     -0.325110    11.456090     5.533055  0.119600
H     12.211023    10.629180     7.308934  0.105000
H     12.566916     9.085285     7.599275  0.105000
H     12.954620    10.094054     8.840807  0.105000
H      3.512585     7.999057     5.561468  0.108600
H      2.389905     6.863436     6.514151  0.108600
H      3.628691     7.783463     7.414822  0.108600
H      0.260946    11.402072     8.876199  0.119000
H      0.298167    12.291703     7.435934  0.119000
H      2.354138    -0.126587     7.684893  0.102400
H      1.544087    13.448529     9.205971  0.102400
H      3.299613    13.525898     9.025337  0.102400
H      4.022824    11.106743     4.261064  0.101200
H      5.315852    11.854110     5.116581  0.101200
H      5.306640    10.128826     5.162869  0.101200
H      4.211964    11.304115     9.015397  0.122000
H      3.267156     9.956390     8.553510  0.122000
H      0.899602     9.714045    10.421438  0.099800
H      2.218715     8.718406    10.315927  0.099800
H      1.781331     9.419175    11.796744  0.099800
H      1.829254     0.062543    12.620292  0.101100
H      2.553370    12.985235    13.719951  0.101100
H      3.528379    -0.000518    12.956609  0.101100
H      3.959173     9.742708    12.135372  0.096100
H      4.745974     9.398861    10.706604  0.096100
H      4.938714    10.980900    11.355537  0.096100
C     10.676484     1.663927   104.854585 -0.239000
C     10.797263     1.107322   103.424621 -0.167600
C     12.048061     1.667932   102.636281 -0.029300
C     13.265296     1.032705   103.363578 -0.237800
C     12.037831     1.229102   101.198997  0.439900
O     10.961458     1.257425   100.553737 -0.448400
O     13.217635     0.699027   100.774613 -0.358300
C     13.204750     0.205293    99.430758 -0.065100
C     12.010427     3.226940   102.756421 -0.165100
C     12.672711     4.274414   101.785724 -0.009900
C     12.312401     4.048354   100.261165 -0.246800
C     12.107376     5.611477   102.264332  0.432100
O     11.413792     5.740989   103.319861 -0.452200
O     12.199095     6.585922   101.309256 -0.355800
C     11.617672     7.882671   101.574893 -0.056200
C      0.011909     4.190922   101.970199 -0.171000
C      0.952555     4.856001   103.026095 -0.031000
C      0.292157     4.644070   104.392365 -0.244000
C      0.899822     6.365479   102.845794  0.435200
O      1.010527     7.177615   103.754793 -0.458900
O      0.800852     6.815892   101.561253 -0.347000
C      0.883781     8.235330   101.265097 -0.066900
C      2.381124     4.140753   103.103329 -0.170400
C      3.473178     4.407153   102.031203 -0.028400
C      4.662743     3.358391   102.166518 -0.243800
C      2.926418     4.175119   100.636361  0.439600
O      2.668356     3.042103   100.243328 -0.450700
O      2.833965     5.296503    99.954568 -0.354600
C      2.088372     5.391779    98.742710 -0.055900
C      4.148084     5.878408   102.113198 -0.159600
C      5.119916     6.504130   103.239369 -0.035600
C      4.280799     6.913028   104.468340 -0.229900
C      5.790442     7.756446   102.585770  0.436800
O      5.068013     8.811024   102.473391 -0.452100
O      6.983510     7.504128   102.133555 -0.352200
C      7.688244     8.482671   101.437730 -0.056800
C      6.181229     5.579590   103.738064 -0.236300
H     11.409264     1.496559   105.622356  0.087100
H      9.834836     1.200721   105.325369  0.087100
H     10.518659     2.696492   104.780807  0.087100
H     10.758220     0.052432   103.469993  0.098700
H      9.874122     1.477875   102.985499  0.098700
H     13.260195    -0.060780   103.247666  0.097400
H     13.271999     1.276964   104.466265  0.097400
H      0.108302     1.236804   103.068675  0.097400
H     12.726341     0.806816    98.719036  0.107100
H     12.636561    13.477651    99.342140  0.107100
H      0.001797     0.036489    99.071016  0.107100
H     10.994502     3.645705   102.776448  0.120800
H     12.219457     3.425584   103.772211  0.120800
H     11.233962     3.945385   100.039702  0.102900
H     12.886180     3.286409    99.764276  0.102900
H     12.566582     4.961083    99.646256  0.102900
H     11.601237     8.495057   100.671332  0.101900
H     10.555200     7.716831   101.881652  0.101900
H     12.182294     8.376490   102.389906  0.101900
H      0.333952     4.414152   100.977058  0.119600
H      0.207932     3.076542   101.995560  0.119600
H      0.999389     4.916994   105.173846  0.105000
H      0.087137     3.587273   104.460501  0.105000
H     13.551358     5.261601   104.597587  0.105000
H      1.916928     8.575291   101.276226  0.108600
H      0.358361     8.804969   102.073502  0.108600
H      0.441859     8.522713   100.316628  0.108600
H      2.824054     4.491774   104.020245  0.119000
H      2.231959     3.051405   103.231665  0.119000
H      5.084667     3.255391   103.214763  0.102400
H      5.417172     3.451042   101.347962  0.102400
H      4.242425     2.361483   101.928971  0.102400
H      2.426587     4.705582    97.980192  0.101200
H      1.090919     5.174393    98.969360  0.101200
H      2.090547     6.422203    98.389911  0.101200
H      3.395260     6.603906   102.218176  0.122000
H      4.817263     6.020661   101.227362  0.122000
H      4.827310     7.144448   105.384217  0.099800
H      3.596013     7.751925   104.254978  0.099800
H      3.597723     6.122905   104.915290  0.099800
H      6.989733     9.160747   101.002725  0.101100
H      8.286414     8.041490   100.621218  0.101100
H      8.233350     9.056481   102.221770  0.101100
H      7.005189     6.103936   104.204354  0.096100
H      5.845076     4.934266   104.463681  0.096100
H      6.728396     5.041259   102.975569  0.096100
C      5.310820     1.758808    41.648719 -0.239000
C      4.728235     2.394622    40.359608 -0.167600
C      5.256764     1.822211    39.023299 -0.029300
C      5.222379     0.208307    39.070643 -0.237800
C      4.250251     2.209465    37.904236  0.439900
O      3.278853     1.505756    37.753558 -0.448400
O      4.305966     3.530705    37.638347 -0.358300
C      3.259811     4.218104    37.022752 -0.065100
C      6.713973     2.337539    38.748447 -0.165100
C      7.559041     2.044473    37.432178 -0.009900
C      7.352956     0.617279    36.948852 -0.246800
C      7.089455     3.016180    36.308567  0.432100
O      7.147660     4.266204    36.435558 -0.452200
O      6.361938     2.501626    35.303129 -0.355800
C      5.917256     3.412428    34.298554 -0.056200
C      9.000890     2.480070    37.868960 -0.171000
C     10.221850     2.011007    37.043560 -0.031000
C     10.791944     0.703424    37.651378 -0.244000
C      9.924331     1.771399    35.624653  0.435200
O      9.994776     0.653907    35.118409 -0.458900
O      9.611908     2.894942    34.907765 -0.347000
C      9.580533     2.773705    33.485803 -0.066900
C     11.212565     3.175828    37.222503 -0.170400
C     12.774842     3.097271    36.977375 -0.028400
C     13.120091     2.117389    35.789020 -0.243800
C     13.344735     4.449227    36.519177  0.439600
O     12.887591     5.484284    37.056420 -0.450700
O      0.093850     4.435734    35.581644 -0.354600
C      0.800017     5.601707    35.246014 -0.055900
C     -0.538246     2.677799    38.192146 -0.159600
C     13.561256     3.130520    39.682945 -0.035600
C     13.450728     4.673187    39.900911 -0.229900
C     12.497477     2.266850    40.438559  0.436800
O     11.342209     2.704537    40.697634 -0.452100
O     12.923474     1.093600    40.807635 -0.352200
C     12.109708     0.114207    41.456877 -0.056800
C      0.718754     2.786585    40.357688 -0.236300
H      4.976393     0.770986    41.869018  0.087100
H      6.358213     1.772611    41.529410  0.087100
H      4.952362     2.391028    42.455198  0.087100
H      4.883684     3.502052    40.465683  0.098700
H      3.637669     2.251494    40.450591  0.098700
H      5.128042    -0.306560    38.155889  0.097400
H      4.388886    -0.083466    39.700604  0.097400
H      6.036137    -0.274071    39.623491  0.097400
H      3.478544     5.274006    36.952313  0.107100
H      2.204758     4.016784    37.317766  0.107100
H      3.299502     3.908567    35.980574  0.107100
H      6.624163     3.391095    38.925767  0.120800
H      7.338575     2.103194    39.601190  0.120800
H      6.355174     0.417015    36.606569  0.102900
H      7.944472     0.298746    36.129240  0.102900
H      7.667744    -0.067012    37.805524  0.102900
H      5.230789     2.922793    33.643306  0.101900
H      5.449719     4.283998    34.649274  0.101900
H      6.797576     3.866862    33.829459  0.101900
H      8.996392     3.572474    37.914390  0.119600
H      9.209362     2.131824    38.894088  0.119600
H     11.520414     0.030604    37.148554  0.105000
H     11.287498     1.016678    38.567494  0.105000
H      9.952184     0.029930    37.844107  0.105000
H      8.812017     2.097457    33.133289  0.108600
H     10.558330     2.470019    33.116847  0.108600
H      9.422478     3.796032    33.102022  0.108600
H     10.800905     3.961392    36.645474  0.119000
H     11.194288     3.591847    38.172897  0.119000
H     12.741465     2.558494    34.834813  0.102400
H     12.588906     1.164795    35.821292  0.102400
H      0.013079     2.006648    35.692773  0.102400
H      1.594175     5.400190    34.504180  0.101200
H      1.186332     6.040205    36.165420  0.101200
H      0.181245     6.280042    34.715281  0.101200
H     -0.544337     1.594487    38.204339  0.122000
H      0.451984     2.948026    37.875523  0.122000
H     13.417358     5.009852    40.927586  0.099800
H     12.514734     5.023354    39.532369  0.099800
H      0.050456     5.201506    39.332471  0.099800
H     11.815418     0.328483    42.452033  0.101100
H     12.697727    13.449249    41.431474  0.101100
H     11.142809     0.014531    40.963922  0.101100
H      0.706957     2.763337    41.456554  0.096100
H      1.153200     1.878684    40.016580  0.096100
H      1.424003     3.574578    40.271290  0.096100
C      3.290814     1.827168   230.508091 -0.239000
C      4.130819     0.611621   230.859673 -0.167600
C      3.759891    -0.169011   232.135927 -0.029300
C      3.853089     0.843881   233.323644 -0.237800
C      2.269167    13.590040   232.047120  0.439900
O      1.634717    -0.487258   230.995402 -0.448400
O      1.815213    13.036319   233.255939 -0.358300
C      0.438298    12.683665   233.232731 -0.065100
C      4.601997    12.706508   232.320105 -0.165100
C      6.020594    12.715842   233.075930 -0.009900
C      7.000081    -0.410856   232.540318 -0.246800
C      5.681966    13.055854   234.581294  0.432100
O      4.844533    12.363703   235.229916 -0.452200
O      6.409206    -0.023606   235.160276 -0.355800
C      5.937917     0.398362   236.395649 -0.056200
C      6.515919    11.219931   233.034524 -0.171000
C      7.956948    10.732704   233.459690 -0.031000
C      7.998858     9.168616   233.591799 -0.244000
C      8.972262    11.188596   232.318782  0.435200
O      8.604654    11.514911   231.167859 -0.458900
O     10.239411    11.165050   232.724298 -0.347000
C     11.328586    11.639844   231.905197 -0.066900
C      8.228735    11.344943   234.846720 -0.170400
C      9.409615    11.243950   235.895616 -0.028400
C      9.796690     9.786759   236.157409 -0.243800
C     10.641236    12.094989   235.484730  0.439600
O     11.782504    11.574695   235.473205 -0.450700
O     10.386152    13.341523   235.214667 -0.354600
C     11.421661     0.136359   235.137919 -0.055900
C      8.731674    11.883608   237.181258 -0.159600
C      9.497834    11.860986   238.579366 -0.035600
C      9.489613    10.444028   239.162905 -0.229900
C      8.649640    12.753775   239.524656  0.436800
O      8.163431    -0.342953   239.161322 -0.452100
O      8.823116    12.485903   240.856383 -0.352200
C      8.045767    13.110642   241.814803 -0.056800
C     10.915554    12.580669   238.466482 -0.236300
H      2.225000     1.742994   230.590116  0.087100
H      3.595156     2.109275   229.549289  0.087100
H      3.623422     2.617514   231.142947  0.087100
H      5.152572     0.887597   230.898178  0.098700
H      4.071971    -0.014305   230.002069  0.098700
H      3.776899     0.628167   234.369950  0.097400
H      3.020092     1.623406   233.221869  0.097400
H      4.804307     1.379546   233.292189  0.097400
H     -0.163162    13.587325   232.992873  0.107100
H      0.154094    12.494427   234.256675  0.107100
H      0.216357    11.767843   232.656011  0.107100
H      3.906462    11.990155   232.700396  0.120800
H      4.812474    12.356718   231.317918  0.120800
H      8.134307    -0.498456   232.841759  0.102900
H      6.649753     0.551515   232.937140  0.102900
H      6.888137    -0.323684   231.437951  0.102900
H      6.547299     1.185320   236.676869  0.101900
H      5.919322    -0.457398   236.995850  0.101900
H      4.918948     0.703428   236.482477  0.101900
H      6.465518    11.084389   231.976221  0.119600
H      5.671962    10.498638   233.342136  0.119600
H      7.597962     8.722519   232.650258  0.105000
H      7.363678     8.710809   234.312333  0.105000
H      8.999268     8.806578   233.664255  0.105000
H     11.097835    12.658129   231.793842  0.108600
H     12.356114    11.432097   232.431163  0.108600
H     11.253887    11.029200   231.012096  0.108600
H      7.259413    11.192583   235.369817  0.119000
H      8.298554    12.445953   234.701294  0.119000
H     10.705768     9.571823   236.739800  0.102400
H     10.088663     9.259646   235.202831  0.102400
H      8.975395     9.232559   236.568041  0.102400
H     12.197378    -0.322236   235.633717  0.101200
H     11.120122     1.122417   235.616581  0.101200
H     11.787344     0.241104   234.161670  0.101200
H      7.734882    11.552885   237.253802  0.122000
H      8.612123    12.937181   236.856426  0.122000
H      9.668876    10.508256   240.180449  0.099800
H      8.520998     9.977446   239.050638  0.099800
H     10.288386     9.858612   238.733956  0.099800
H      7.642542    -0.102314   241.410805  0.101100
H      8.517353    13.290550   242.713076  0.101100
H      7.125904    12.635824   242.042742  0.101100
H     10.828115    13.511238   237.892685  0.096100
H     11.180153    12.828593   239.501299  0.096100
H     11.716487    11.976456   238.097582  0.096100
C      1.295354     7.304310   211.519644 -0.239000
C      0.020885     7.288278   212.331020 -0.167600
C     13.183728     6.187326   211.922312 -0.029300
C     12.707124     6.403218   210.519178 -0.237800
C     -0.293760     4.815726   211.970352  0.439900
O     13.565968     3.884970   211.262569 -0.448400
O      0.448065     4.717669   213.033726 -0.358300
C      1.281774     3.550059   213.208749 -0.065100
C     12.085869     6.124573   213.027515 -0.165100
C     10.789416     7.090503   213.028127 -0.009900
C     11.094021     8.621312   213.198876 -0.246800
C      9.911238     6.780947   211.813006  0.432100
O      9.275347     5.687171   211.728381 -0.452200
O      9.984280     7.742470   210.796520 -0.355800
C      9.575519     7.462415   209.503774 -0.056200
C      9.957761     6.676554   214.294534 -0.171000
C      8.396257     7.071857   214.664087 -0.031000
C      7.961408     8.397565   213.931210 -0.244000
C      7.514325     5.865866   214.162615  0.435200
O      7.698818     4.755043   214.655411 -0.458900
O      6.424617     6.198549   213.442961 -0.347000
C      5.272023     5.375516   213.392193 -0.066900
C      8.098512     7.376002   216.179620 -0.170400
C      9.028686     6.869216   217.423798 -0.028400
C      9.111100     5.319399   217.256881 -0.243800
C     10.420626     7.555844   217.365038  0.439600
O     11.427408     6.934002   217.673631 -0.450700
O     10.343170     8.760293   216.921861 -0.354600
C     11.481518     9.585546   217.030112 -0.055900
C      8.399405     7.012658   218.853686 -0.159600
C      8.248914     8.316684   219.615795 -0.035600
C      9.573510     8.773978   220.231773 -0.229900
C      7.270430     8.048539   220.751409  0.436800
O      6.992391     6.929759   221.234043 -0.452100
O      6.626693     9.158620   221.165462 -0.352200
C      5.657681     9.041014   222.074321 -0.056800
C      7.677585     9.390426   218.644431 -0.236300
H      2.102303     7.933501   211.983601  0.087100
H      1.693465     6.301498   211.424274  0.087100
H      0.955799     7.612732   210.554927  0.087100
H      0.447370     7.243963   213.380573  0.098700
H     -0.440802     8.269027   212.277488  0.098700
H     12.251915     7.450694   210.349093  0.097400
H     13.504674     6.325826   209.878930  0.097400
H     12.018944     5.575160   210.282252  0.097400
H      1.523081     3.430576   214.323279  0.107100
H      0.975382     2.651450   212.794833  0.107100
H      2.180635     3.741665   212.645361  0.107100
H     11.682791     5.096813   212.914068  0.120800
H     12.565870     6.214621   214.015663  0.120800
H     11.746696     8.937686   212.363754  0.102900
H     11.675722     8.802459   214.129471  0.102900
H     10.168298     9.226283   213.173185  0.102900
H     10.341684     7.536694   208.735223  0.101900
H      8.918704     6.509987   209.387975  0.101900
H      8.931404     8.304809   209.307895  0.101900
H     10.714450     6.834156   215.048484  0.119600
H      9.948046     5.554158   214.318575  0.119600
H      8.434100     9.203642   214.467190  0.105000
H      6.888994     8.516434   214.084836  0.105000
H      8.221823     8.460588   212.889556  0.105000
H      5.458768     4.312015   213.731701  0.108600
H      4.341455     5.715079   213.856355  0.108600
H      4.932032     5.233234   212.402656  0.108600
H      7.071433     7.224246   216.449357  0.119000
H      7.910630     8.437886   216.268896  0.119000
H      9.592214     4.981695   216.362166  0.102400
H      8.094615     4.855696   217.191598  0.102400
H      9.630388     4.879875   218.073684  0.102400
H     11.423118    10.534164   216.450481  0.101200
H     11.659956     9.858714   218.024408  0.101200
H     12.445835     9.193052   216.726523  0.101200
H      7.410977     6.487095   218.818562  0.122000
H      8.774561     6.198557   219.499806  0.122000
H     10.351003     9.007413   219.490701  0.099800
H      9.832096     8.053041   221.036158  0.099800
H      9.266484     9.684017   220.690453  0.099800
H      5.554788    10.061314   222.520427  0.101100
H      4.638960     8.703195   221.768201  0.101100
H      6.153344     8.476454   222.979712  0.101100
H      6.820564     9.076225   218.085623  0.096100
H      7.451169    10.218942   219.256233  0.096100
H      8.308962     9.831558   217.867146  0.096100
C      0.796210    11.021207   213.108114 -0.239000
C      0.434187    12.514035   212.624318 -0.167600
C     13.250902    12.714913   212.125725 -0.029300
C     13.223112     0.020645   211.670911 -0.237800
C     13.008966    11.872618   210.852439  0.439900
O     12.825386    10.688791   211.011161 -0.448400
O     13.286065    12.455179   209.672515 -0.358300
C     12.960985    11.850030   208.406565 -0.065100
C     12.261496    12.380036   213.296836 -0.165100
C     10.837379    13.026194   213.320604 -0.009900
C     10.174586    12.424787   214.524209 -0.246800
C     10.868935     0.354010   213.702479  0.432100
O     11.039805     0.706687   214.852279 -0.452200
O     10.660421     1.077432   212.581255 -0.355800
C     11.014409     2.429747   212.503895 -0.056200
C     10.065247    12.767451   211.974225 -0.171000
C      8.544801    12.739047   211.763374 -0.031000
C      8.147657    11.266957   212.249507 -0.244000
C      7.874914    -0.349163   212.584081  0.435200
O      6.936575    13.580844   213.341654 -0.458900
O      8.180685     0.886193   212.150798 -0.347000
C      7.445298     2.080163   212.560025 -0.066900
C      8.283599    12.998097   210.230093 -0.170400
C      7.009277    12.578837   209.439073 -0.028400
C      7.252947    11.079694   208.963803 -0.243800
C      5.721207    12.713280   210.300067  0.439600
O      5.323413    -0.363262   210.552077 -0.450700
O      5.051846    11.533538   210.454112 -0.354600
C      3.838783    11.561011   211.089281 -0.055900
C      6.789992    13.456946   208.142592 -0.159600
C      7.800593    -0.589636   206.946344 -0.035600
C      7.610807    12.487548   205.907656 -0.229900
C      9.280557    -0.531184   207.334784  0.436800
O     10.063231    12.704089   207.202327 -0.452100
O      9.614748     0.723214   207.672000 -0.352200
C     11.006279     1.004375   207.817263 -0.056800
C      7.445965     0.636083   206.171292 -0.236300
H      1.804089    10.930711   213.487389  0.087100
H      0.636653    10.335718   212.305350  0.087100
H      0.157414    10.684987   213.905268  0.087100
H      0.679422    13.167419   213.463449  0.098700
H      1.154168    12.767947   211.801941  0.098700
H     12.463834     0.323508   211.058689  0.097400
H     13.238498     0.729254   212.570345  0.097400
H     -0.101956     0.338868   211.117048  0.097400
H     12.566598    12.637499   207.687188  0.107100
H     -0.416918    11.307160   207.945357  0.107100
H     12.082402    11.152743   208.544258  0.107100
H     12.098885    11.309071   213.213904  0.120800
H     12.664076    12.519256   214.297593  0.120800
H     10.555428    12.678705   215.421949  0.102900
H      9.201493    12.767952   214.591414  0.102900
H     10.141595    11.301445   214.554704  0.102900
H     10.771520     2.741697   211.496734  0.101900
H     12.141018     2.461808   212.664808  0.101900
H     10.530904     3.018344   213.231366  0.101900
H     10.451610    11.805313   211.637068  0.119600
H     10.415189    13.486023   211.252446  0.119600
H      8.484672    10.589023   211.427763  0.105000
H      7.102437    11.242796   212.470159  0.105000
H      8.638995    11.097580   213.225092  0.105000
H      6.410832     1.875404   212.306897  0.108600
H      7.715003     2.937727   211.925668  0.108600
H      7.600085     2.203611   213.689255  0.108600
H      9.193407    12.698167   209.659124  0.119000
H      8.333120    -0.048008   210.157888  0.119000
H      7.470591    10.355697   209.709041  0.102400
H      8.198414    11.143647   208.335149  0.102400
H      6.526608    10.643503   208.271087  0.102400
H      3.255462    12.462149   210.904886  0.101200
H      3.129617    10.792353   210.763101  0.101200
H      3.964963    11.483285   212.188421  0.101200
H      5.754530    13.299044   207.841994  0.122000
H      6.659326     0.347326   208.560363  0.122000
H      6.597278    12.304376   205.481440  0.099800
H      8.038712    11.558960   206.145596  0.099800
H      8.093276    12.614144   204.964206  0.099800
H     11.376422     0.509743   208.744574  0.101100
H     11.041541     2.086300   207.999467  0.101100
H     11.669432     0.635277   207.036198  0.101100
H      6.527504     0.400853   205.681691  0.096100
H      8.105788     0.809140   205.348274  0.096100
H      7.189026     1.520930   206.788702  0.096100
C      0.172358     2.699051   232.298644 -0.239000
C      0.555710     3.979697   231.556174 -0.167600
C      0.535066     5.240952   232.564688 -0.029300
C     -0.536097     5.416339   233.533348 -0.237800
C      1.747602     4.984134   233.473257  0.439900
O      2.897311     5.174674   232.967781 -0.448400
O      1.468793     4.301803   234.706599 -0.358300
C      2.544622     3.547804   235.350689 -0.065100
C      0.927233     6.523618   231.795309 -0.165100
C     -0.170653     7.428493   231.082343 -0.009900
C     13.128177     6.602867   230.043086 -0.246800
C     13.053214     7.987058   232.197714  0.432100
O     11.869763     8.231334   231.923408 -0.452200
O     -0.536345     8.346547   233.292334 -0.355800
C     12.927552     8.902578   234.466351 -0.056200
C      0.309594     8.745359   230.389431 -0.171000
C      1.563360     8.810142   229.513627 -0.031000
C      1.471083     7.579873   228.488394 -0.244000
C      2.689623     8.645663   230.533433  0.435200
O      2.920197     9.495592   231.373433 -0.458900
O      3.405684     7.671900   230.317241 -0.347000
C      4.578150     7.447524   231.106212 -0.066900
C      1.755447    10.167039   228.706048 -0.170400
C      2.897776    10.517210   227.714055 -0.028400
C      2.937182     9.646520   226.466588 -0.243800
C      2.446543    11.890108   227.205981  0.439600
O      1.476945    12.084730   226.477820 -0.450700
O      3.030068    12.901137   227.904054 -0.354600
C      2.819699     0.037078   227.430494 -0.055900
C      4.205615    10.550945   228.488528 -0.159600
C      5.634698    10.820839   227.906827 -0.035600
C      6.727874    11.027497   229.069012 -0.229900
C      5.663842    12.017371   226.955050  0.436800
O      5.109626    11.879848   225.908285 -0.452100
O      6.332328    13.174450   227.326331 -0.352200
C      6.324700     0.139961   226.490516 -0.056800
C      6.211552     9.574469   227.089353 -0.236300
H     -0.093165     1.834629   231.672780  0.087100
H     13.405327     2.897970   232.842918  0.087100
H      0.978199     2.294516   232.997236  0.087100
H     -0.163460     4.182159   230.791125  0.098700
H      1.489495     3.864584   231.022222  0.098700
H     -0.285179     6.191757   234.242068  0.097400
H     12.681828     5.731471   233.144279  0.097400
H     13.355498     4.609706   234.223384  0.097400
H      3.536058     3.508595   234.843174  0.107100
H      2.142568     2.547363   235.724231  0.107100
H      2.795660     4.151229   236.259369  0.107100
H      1.506353     7.320653   232.344925  0.120800
H      1.572514     6.116972   230.960252  0.120800
H     12.413646     7.299242   229.466957  0.102900
H     -0.460515     6.011821   229.397796  0.102900
H     12.575980     5.761380   230.605783  0.102900
H     12.491943     8.101402   235.005103  0.101900
H     12.162929     9.514237   234.100462  0.101900
H     -0.536861     9.364345   235.156761  0.101900
H     -0.554884     9.035956   229.840476  0.119600
H      0.391799     9.494055   231.152364  0.119600
H      2.228798     7.513343   227.693636  0.105000
H      0.459825     7.472629   228.152201  0.105000
H      1.638195     6.630797   228.869432  0.105000
H      4.293638     7.366185   232.212843  0.108600
H      5.314911     8.228840   231.009815  0.108600
H      4.910682     6.422171   230.860123  0.108600
H      0.782404    10.522179   228.244804  0.119000
H      1.830263    10.989052   229.464148  0.119000
H      3.466556     8.707724   226.611092  0.102400
H      3.509276    10.213821   225.644468  0.102400
H      1.952427     9.410461   226.048376  0.102400
H      3.042877     0.157419   226.391587  0.101200
H      3.467977     0.707611   227.926581  0.101200
H      1.816746     0.394145   227.699135  0.101200
H      4.286746     9.647622   228.960073  0.122000
H      4.020193    11.241542   229.326215  0.122000
H      6.367258    11.605642   229.882823  0.099800
H      6.957072    10.135178   229.574996  0.099800
H      7.565262    11.535832   228.621831  0.099800
H      7.335519     0.477660   226.252742  0.101100
H      5.936869     0.966061   227.021237  0.101100
H      5.737229     0.087353   225.544173  0.101100
H      6.251485     8.698109   227.727732  0.096100
H      7.242218     9.828677   226.720044  0.096100
H      5.561209     9.312660   226.179918  0.096100
C      5.291586     7.893748   210.166735 -0.239000
C      5.841116     6.547380   209.653880 -0.167600
C      5.242309     5.888320   208.381793 -0.029300
C      4.865526     7.023009   207.400169 -0.237800
C      6.353740     5.025747   207.750258  0.439900
O      6.453178     4.880396   206.502395 -0.448400
O      7.127480     4.439676   208.709984 -0.358300
C      8.253745     3.633986   208.431819 -0.065100
C      4.068267     4.877476   208.926636 -0.165100
C      2.988052     4.283790   207.968585 -0.009900
C      2.162219     3.375035   208.862808 -0.246800
C      2.162867     5.546191   207.457200  0.432100
O      1.438455     6.206505   208.215129 -0.452200
O      2.196522     5.823624   206.125887 -0.355800
C      1.722879     7.027075   205.552042 -0.056200
C      3.675505     3.584458   206.746730 -0.171000
C      2.934594     2.430874   205.888567 -0.031000
C      4.004056     2.220978   204.789201 -0.244000
C      2.900354     1.125287   206.772514  0.435200
O      3.921071     0.496660   206.995060 -0.458900
O      1.704003     0.745035   207.285558 -0.347000
C      1.551579    -0.334074   208.189404 -0.066900
C      1.494091     2.883622   205.324192 -0.170400
C      0.623411     2.228577   204.195078 -0.028400
C     13.347782     2.265808   204.409660 -0.243800
C      0.896301     3.019451   202.903184  0.439600
O      1.771219     2.683036   202.102910 -0.450700
O      0.032458     3.985118   202.684215 -0.354600
C      0.094969     4.816471   201.540399 -0.055900
C      1.101404     0.689238   204.087742 -0.159600
C      0.433123    -0.498888   203.377594 -0.035600
C      0.164700    -0.113843   201.896664 -0.229900
C     13.318967    13.355546   204.189765  0.436800
O     13.316045    12.754162   205.266380 -0.452100
O     12.199325    -0.422260   203.541310 -0.352200
C     10.918342    -0.396593   204.227667 -0.056800
C      1.275875    12.399347   203.387989 -0.236300
H      4.358600     7.736005   210.678535  0.087100
H      5.111780     8.660760   209.431684  0.087100
H      6.008277     8.213825   210.894458  0.087100
H      5.819559     5.834094   210.523262  0.098700
H      6.865564     6.704499   209.448135  0.098700
H      4.086702     7.798321   207.639339  0.097400
H      4.598562     6.775146   206.386553  0.097400
H      5.639409     7.737708   207.211299  0.097400
H      8.272570     3.293700   207.386818  0.107100
H      9.141923     4.257698   208.569122  0.107100
H      8.185017     2.776905   209.057338  0.107100
H      3.704385     5.255902   209.899972  0.120800
H      4.517838     3.892532   209.362759  0.120800
H      2.637112     2.596346   209.426933  0.102900
H      1.380546     2.884379   208.356753  0.102900
H      1.774878     4.027781   209.653964  0.102900
H      2.542150     7.688974   205.537426  0.101900
H      1.572239     6.751605   204.517838  0.101900
H      0.837714     7.402243   205.987090  0.101900
H      4.169742     4.307341   206.099086  0.119600
H      4.578081     3.140157   207.133018  0.119600
H      5.030960     2.096570   205.196827  0.105000
H      3.892833     2.836343   203.886810  0.105000
H      3.902853     1.239757   204.377276  0.105000
H      1.294726    12.946640   207.695057  0.108600
H      2.346852    -0.491643   208.788424  0.108600
H      0.715294    -0.197344   208.877894  0.108600
H      0.862986     3.154808   206.129004  0.119000
H      1.647564     3.892348   204.900109  0.119000
H     12.690369     2.037978   203.594262  0.102400
H     13.044138     1.579799   205.206193  0.102400
H     13.033176     3.331754   204.784762  0.102400
H      0.620475     5.692808   201.774407  0.101200
H      0.547968     4.356898   200.706571  0.101200
H     13.354080     5.208045   201.164979  0.101200
H      1.439573     0.302745   205.082850  0.122000
H      2.084032     0.757280   203.606345  0.122000
H     -0.411311    13.201654   201.408196  0.099800
H     -0.490750     0.716775   201.868586  0.099800
H      1.092571     0.065387   201.272969  0.099800
H     10.849162     0.333888   205.113777  0.101100
H     10.105507    -0.305012   203.543619  0.101100
H     10.670183    12.835555   204.719340  0.101100
H      2.174830    12.518895   202.871724  0.096100
H      0.782913    11.659886   202.747368  0.096100
H      1.394700    12.001727   204.404751  0.096100
C      6.419873     0.711403   216.101415 -0.239000
C      7.593351     0.852885   217.007454 -0.167600
C      7.418315     0.329681   218.468025 -0.029300
C      7.475891    12.949592   218.467349 -0.237800
C      5.964401     0.689577   218.943214  0.439900
O      5.032960    -0.123640   218.796562 -0.448400
O      5.827556     1.852403   219.589933 -0.358300
C      4.524509     2.154015   219.989455 -0.065100
C      8.331649     1.081676   219.433743 -0.165100
C      9.842256     0.704995   219.638983 -0.009900
C     10.510360     0.542558   218.214158 -0.246800
C     10.586262     1.955289   220.219668  0.432100
O     11.784982     2.139141   219.975431 -0.452200
O      9.811954     2.824769   220.906630 -0.355800
C     10.367859     4.078823   221.337946 -0.056200
C     10.151431    -0.471972   220.600516 -0.171000
C     10.000834    -0.512658   222.213560 -0.031000
C     11.207968     0.248056   222.759189 -0.244000
C      8.673591     0.224495   222.571376  0.435200
O      8.649255     1.206140   223.336930 -0.458900
O      7.607779    -0.419241   222.062891 -0.347000
C      6.331653    -0.092039   222.346152 -0.066900
C      9.954407    12.138143   222.685557 -0.170400
C      9.884848    11.601032   224.120433 -0.028400
C      8.547996    12.050384   224.597982 -0.243800
C      9.972775    10.105102   224.007879  0.439600
O     10.918906     9.671327   223.369123 -0.450700
O      8.847056     9.409753   224.333090 -0.354600
C      8.754575     8.040597   224.175474 -0.055900
C     10.998465    12.086099   225.124913 -0.159600
C     11.437485    11.399070   226.435755 -0.035600
C     12.295615    10.163047   226.180963 -0.229900
C     12.404122    12.353662   227.231030  0.436800
O     12.702357    13.468444   226.830360 -0.452100
O     12.673790    11.916208   228.506392 -0.352200
C     -0.553873    12.668348   229.221874 -0.056800
C     10.254908    10.912361   227.274914 -0.236300
H      5.504937     1.347136   216.395042  0.087100
H      6.663277     0.951501   215.066286  0.087100
H      6.026207    -0.306240   216.185902  0.087100
H      7.870150     1.923246   216.946974  0.098700
H      8.431346     0.333236   216.585068  0.098700
H      7.375740    12.638554   219.519538  0.097400
H      8.400203    12.509284   218.083322  0.097400
H      6.728660    12.526188   217.751700  0.097400
H      4.199948     1.494748   220.775957  0.107100
H      4.577491     3.135750   220.288619  0.107100
H      3.770666     2.057635   219.176321  0.107100
H      7.899956     1.056757   220.365473  0.120800
H      8.221666     2.152147   219.091817  0.120800
H     10.193239     1.309914   217.493066  0.102900
H     11.570370     0.555299   218.103385  0.102900
H     10.378827    -0.472564   217.918274  0.102900
H     10.664422     4.454811   220.335929  0.101900
H      9.536222     4.684115   221.728860  0.101900
H     11.199676     3.974667   222.024940  0.101900
H      9.483872    12.939273   220.378405  0.119600
H     11.074013    13.246619   220.343301  0.119600
H     12.157972    -0.016237   222.371952  0.105000
H     11.212846     0.373558   223.788709  0.105000
H     11.160898     1.271654   222.540033  0.105000
H      6.167937     1.016193   222.235581  0.108600
H      5.994656    -0.349789   223.316748  0.108600
H      5.674411    -0.533843   221.624206  0.108600
H     10.846061    11.689019   222.241541  0.119000
H      9.240204    11.615996   222.021542  0.119000
H      7.728075    11.728875   223.919977  0.102400
H      8.268657    11.607379   225.503782  0.102400
H      8.542583    13.085063   224.868660  0.102400
H      9.455055     7.587027   224.891770  0.101200
H      7.804703     7.556803   224.182207  0.101200
H      9.252487     7.722610   223.237005  0.101200
H     10.727388    13.067665   225.574174  0.122000
H     11.894836    12.313314   224.470579  0.122000
H     12.643247     9.546644   227.007715  0.099800
H     11.823927     9.374459   225.573347  0.099800
H     13.203480    10.437050   225.631573  0.099800
H      0.098736    13.323056   228.624581  0.101100
H     13.266055    13.470907   229.873172  0.101100
H     -0.233945    11.967428   229.999128  0.101100
H      9.453744    11.610237   227.381932  0.096100
H      9.737375     9.973144   227.032037  0.096100
H     10.661315    10.744004   228.277122  0.096100
C      0.542507     5.759279    85.561864 -0.239000
C      0.785971     7.295326    85.323239 -0.167600
C      0.102648     7.956728    84.125609 -0.029300
C      0.349383     9.458398    84.391267 -0.237800
C      0.866300     7.387752    82.861413  0.439900
O      0.538227     6.386755    82.264398 -0.448400
O      1.846523     8.193531    82.387428 -0.358300
C      2.408081     7.957748    81.067360 -0.065100
C     12.741780     7.638051    84.070602 -0.165100
C     11.742424     8.462190    83.096986 -0.009900
C     12.275663     8.441727    81.645002 -0.246800
C     11.562964     9.873261    83.577474  0.432100
O     11.219493    10.090751    84.742423 -0.452200
O     11.634635    10.807722    82.648809 -0.355800
C     11.639565    12.180936    82.859748 -0.056200
C     10.295936     7.950106    83.323119 -0.171000
C      9.586891     6.951466    82.287804 -0.031000
C     10.377687     5.563087    82.150876 -0.244000
C      9.444027     7.662746    80.980283  0.435200
O      8.847030     8.735222    80.946964 -0.458900
O     10.084653     7.182869    79.980801 -0.347000
C     10.026649     7.944206    78.756498 -0.066900
C      8.156556     6.699253    82.824074 -0.170400
C      6.955179     5.971078    82.037532 -0.028400
C      6.101540     7.075843    81.470343 -0.243800
C      7.417631     5.225459    80.765935  0.439600
O      7.609507     5.805018    79.682908 -0.450700
O      7.440049     3.939180    80.892502 -0.354600
C      7.956489     3.154267    79.864171 -0.055900
C      6.336286     4.948210    83.014493 -0.159600
C      5.442706     5.411941    84.204735 -0.035600
C      4.080621     5.996691    83.608560 -0.229900
C      4.892762     4.211272    85.010357  0.436800
O      4.481668     4.437296    86.148660 -0.452100
O      4.947370     3.048333    84.439764 -0.352200
C      4.219532     1.909748    84.931054 -0.056800
C      6.142119     6.373900    85.218620 -0.236300
H      0.958227     5.447988    86.501498  0.087100
H      1.018210     5.129802    84.818234  0.087100
H     -0.537076     5.597747    85.630650  0.087100
H      0.404403     7.834798    86.208376  0.098700
H      1.854061     7.535094    85.246695  0.098700
H     -0.423760     9.804840    85.071190  0.097400
H      0.195342     9.929976    83.441737  0.097400
H      1.355747     9.717819    84.634820  0.097400
H      1.846101     8.316573    80.187314  0.107100
H      3.432054     8.381245    80.948367  0.107100
H      2.442418     6.871899    80.855954  0.107100
H     12.431641     7.623962    85.142947  0.120800
H     12.635997     6.562967    83.898910  0.120800
H     12.351888     7.404135    81.349940  0.102900
H     13.291319     8.825560    81.531811  0.102900
H     11.644568     9.076226    80.987736  0.102900
H     11.812971    12.452232    83.913685  0.101900
H     12.495959    12.618646    82.372615  0.101900
H     10.666995    12.611889    82.548214  0.101900
H      9.741507     8.824234    83.313091  0.119600
H     10.209329     7.647388    84.377647  0.119600
H     11.445543     5.751352    82.129968  0.105000
H     10.234875     4.961476    83.014664  0.105000
H     10.094023     4.887026    81.329730  0.105000
H      9.034617     8.250428    78.413346  0.108600
H     10.650004     7.468114    77.992464  0.108600
H     10.579391     8.859461    78.928032  0.108600
H      8.345220     6.138719    83.748375  0.119000
H      7.754660     7.569373    83.338480  0.119000
H      5.745278     7.751925    82.275072  0.102400
H      6.530155     7.730994    80.688226  0.102400
H      5.235340     6.665670    80.934145  0.102400
H      7.662203     2.087856    80.033349  0.101200
H      7.462215     3.462648    78.934408  0.101200
H      9.007313     3.368129    79.707486  0.101200
H      7.179951     4.404034    83.457550  0.122000
H      5.789919     4.227859    82.473542  0.122000
H      3.743670     5.229894    82.934471  0.099800
H      4.109279     6.881250    83.060979  0.099800
H      3.420048     6.136160    84.376269  0.099800
H      3.199915     2.116541    85.082064  0.101100
H      4.312919     1.059545    84.367611  0.101100
H      4.757132     1.713617    85.831984  0.101100
H      6.312682     7.398223    84.847947  0.096100
H      7.077195     5.970210    85.642753  0.096100
H      5.501856     6.590386    86.118428  0.096100
