2583
Lattice="13.77706000 0.00000000 0.00000000 0.00000000 13.77479700 0.00000000 0.00000000 0.00000000 156.98549300" pbc="T T T"
C        3.92293500      13.37148500     140.62219100
C        5.20655600      13.11772000     139.89713100
C        5.16593600      13.42589400     138.34581400
C        3.95937500      12.69732100     137.74801100
C        4.87110100       1.32139800     137.93137500
O        4.52767800       1.63088300     136.78950100
O        5.06157300       2.23279700     138.94223200
C        4.49839600       3.47609800     138.63030900
C        6.50787500      13.03856400     137.62589500
C        8.03465000      13.37717100     137.96606800
C        8.14890100       1.29623800     138.16449000
C        8.54831800      12.59765700     139.20574200
O        8.87860400      13.10786900     140.30394300
O        8.50033500      11.34051000     138.93848500
C        8.86884400      10.42017500     139.95937200
C        8.82822100      12.94015200     136.69608200
C       10.25194100      13.42517000     136.30632700
C       10.35765700       1.31186300     135.92075800
C       11.16708100      13.08049600     137.39105200
O       11.38880600      11.86632500     137.71472000
O       11.64898500       0.58769600     138.05659800
C       12.31118500       0.37753100     139.30592000
C       10.69917000      12.67312500     135.10369000
C       12.11037800      12.85774100     134.29728300
C       11.92759100       0.26149200     133.09235200
C       13.27306200      13.35431400     135.21541000
O        0.14152900      12.50400000     135.97433700
O        0.16703900       1.03898900     135.00235800
C        0.87606500       1.60188500     136.11788600
C       12.55949900      11.45874700     133.63372600
C        0.24647500      11.31817700     132.69594200
C        1.61485500      11.71810700     133.27291200
C       13.59167400      11.77913400     131.24809400
O       12.50126800      11.55219900     130.74919500
O        0.99699700      12.50655000     130.75919100
C        0.82832200      13.15313800     129.53988400
C        0.47386900       9.81273900     132.44244100
H        3.63977300       0.78040700     140.38512800
H        3.03763000      12.70378300     140.37500400
H        4.14988200      13.34262000     141.68549600
H        5.76977300      12.20972100     140.07052100
H        5.90374500       0.34639300     140.26285200
H        4.18402700      11.66008200     137.64379400
H        3.73624900      12.98130600     136.73985900
H        2.93194200      12.84953200     138.17884700
H        3.48029600       3.28809500     138.22999700
H        5.00916800       4.00697500     137.90160900
H        6.31627200      13.33123300     136.53611300
H        6.44711400      11.95299600     137.57458100
H        7.48314600       1.66473100     138.98602100
H        9.20870900       1.35428600     138.45532900
H        9.50016700       9.59117400     139.60449000
H        7.96669500      10.02358400     140.43108500
H        9.39352800      10.83141700     140.82746700
H        8.19603600      13.32442800     135.90494600
H        8.77733500      11.87340800     136.55214100
H       11.37936500       1.75380300     135.76413900
H        9.96118200       1.93232600     136.63857400
H        9.72477600       1.52531700     135.01353200
H       11.94629500      13.06412200     139.82229500
H       13.28172900      13.64679700     138.98692200
H       12.39721600       1.15627700     140.03240900
H        9.95529000      12.75062800     134.32369900
H       10.63072500      11.60656800     135.40612500
H       11.47805200      13.26795100     132.33220400
H       12.92707500       0.53311500     132.73817700
H        1.91223400       1.25829200     136.18414400
H       12.81541400      10.70265600     134.40508400
H        1.80363900      11.28439200     134.31799500
H        2.41288100      11.47211000     132.58740700
H        1.58898800      12.79132200     133.30927600
H        1.08675600      12.52334100     128.72351200
H        1.61046400       0.27846200     129.49530000
H       13.52526200       0.10000000     129.35797900
H       13.06344200       9.29944700     132.32933300
H        1.05311700       9.65320200     131.52863700
C        7.94690500       4.99825400     155.03523900
C        8.26788000       5.11970700     156.53599000
C        9.43954400       6.16336800       0.10000000
C        8.83202100       7.45226800     156.37312700
C        9.34446800       6.08089700       1.62237400
O        9.49115600       5.02457300       2.25214500
O        9.17418100       7.24428800       2.22457700
C        9.11949100       7.42628600       3.64578300
C       10.85698100       5.77926200     156.32586800
C       12.11768600       6.69137600     156.50264100
C       12.21676400       7.10221700       1.17767500
C       13.35275900       5.81380600     156.06100500
O       13.32548700       5.12504200     155.04191600
O        0.84481800       5.87485700     156.82595600
C        1.97962500       5.03145100     156.48510100
C       12.04547800       7.83173200     155.46668200
C       13.27707600       8.79206700     155.07072900
C        0.62037000       9.12239800     156.29593800
C       12.66758800      10.10425700     154.57773600
O       11.80021900      10.13232600     153.72144100
O       13.07959300      11.21434000     155.25942900
C       12.50604000      12.46146600     155.13653300
C        0.53832100       8.14985700     153.97597500
C        1.75147800       8.79242500     153.15783200
C        1.35506700      10.26447000     152.62907300
C        2.90880400       8.90454400     154.22280300
O        3.24422800       7.95212200     154.85201200
O        3.66051300      10.03656100     154.24492800
C        4.56159000      10.28946900     155.33634200
C        2.03932600       7.75463900     152.04257300
C        2.88074500       8.06394900     150.75442400
C        4.23797900       8.60463700     151.13000300
C        2.07713800       9.03929500     149.82108900
O        2.63962500      10.03024900     149.31078300
O        0.73469400       8.73472300     149.65236400
C       13.57508900       9.47794200     148.71894800
C        2.98252300       6.68462200     150.04737500
H        7.14192400       4.27292400     154.85668600
H        7.48203700       5.85339800     154.50982700
H        8.91150500       4.72294200     154.58341600
H        8.40342300       4.07398400       0.10149700
H        7.81074000       7.42948300     156.29418300
H        8.93711000       8.42307100     156.88549300
H       10.09758200       7.19949200       4.03425200
H        8.85145500       8.44922900       3.83907100
H        8.27789400       6.81678400       4.04591500
H       10.89052300       4.68856700     156.63120300
H       13.24009300       7.46544200       1.29680700
H       11.95856400       6.38108100       1.91592900
H       11.62623600       7.98949300       1.22391200
H        1.78670500       3.95068400     156.56784600
H        2.85649600       5.33186600       0.10091500
H       11.23923900       8.50692800     155.68546800
H       11.67744000       7.37176200     154.56155100
H       13.52628700       9.53299800       0.23609000
H        1.20747300       9.96925300     155.96954300
H        1.16501700       8.23449300     156.56528000
H       12.12708200      12.57514800     154.16957500
H       11.57780400      12.57057200     155.79168100
H       13.29941100      13.14900900     155.38093300
H        0.91257500       7.21885000     154.35110300
H       13.34189000       7.90047900     153.19557400
H        1.23997200      10.95164400     153.43350800
H        0.48140000      10.31738200     151.87387700
H        2.15305900      10.58404100     152.09566700
H        4.83082200      11.26143800     155.55180100
H        5.45248000       9.72476300     155.11608800
H        4.14129800       9.99127600     156.28363900
H        2.37847200       6.82058500     152.32768000
H        1.08943200       7.57302400     151.58047600
H        4.15177400       9.67475100     151.28863600
H       12.56673300       9.12650500     148.85455300
H        0.45696800       9.25817000     147.74073800
H        0.21505400      10.53931100     148.93469000
H        3.36492500       6.79265500     149.06841600
H        1.85269500       6.30994000     149.74649600
C       10.20738700       7.42091500      56.51389700
C       11.09991400       6.96533400      55.30807600
C       12.48775300       6.38671800      55.72896500
C       13.19744900       7.24943900      56.83600300
C       12.25586600       5.01040100      56.40304500
O       13.25005500       4.49400700      56.96233900
O       10.98956500       4.67399700      56.51534100
C       10.67288200       3.57366500      57.31296400
C       13.39251000       6.27092000      54.43131100
C       12.89206300       5.55646000      53.13617700
C       12.21589500       4.15924100      53.37001800
C       11.92917100       6.54142800      52.44183300
O       12.24932200       7.74952900      52.44510500
O       10.77702100       6.02052900      51.91097000
C        9.94132300       6.86125400      51.25545200
C        0.63165800       5.28625200      52.32170600
C        0.63971100       5.25836900      50.74935300
C       13.13624000       4.29334700      50.22429000
C        0.43152800       6.68398500      50.14329500
O        0.87792300       7.70538000      50.74352600
O       13.19327100       6.69157200      49.06342900
C       12.93124900       7.93173000      48.46506100
C        1.94669500       4.63290600      50.20995300
C        3.40530200       5.21177000      50.42331300
C        3.74840600       5.70836800      51.85131000
C        4.30578600       3.97255800      50.09197600
O        4.09946000       3.28235700      49.06511500
O        5.00305400       3.50310300      51.08727600
C        5.66043200       2.25201300      51.00087300
C        3.57587400       6.42828200      49.41077300
C        5.04432900       6.76686800      48.80340900
C        4.96366700       8.09277500      47.94684800
C        5.54206600       5.73360200      47.70905000
O        5.18342300       5.76460400      46.55949200
O        6.56638900       5.01158500      48.26848100
C        7.05952400       4.02119300      47.46669900
C        6.07583700       7.02573700      50.00124000
H       10.76100800       8.01693800      57.26988600
H        9.70749800       6.65893800      56.99746400
H        9.47773400       8.17789100      56.11906900
H       10.44239300       6.31083700      54.72972200
H       11.34914100       7.78535000      54.70009100
H       12.90076800       8.35411500      56.80134100
H       12.94007600       6.87347500      57.87020700
H        0.74219300       7.21116500      56.69693200
H       11.33039600       2.71360400      57.30220700
H        9.69458800       3.17368200      56.99998700
H        0.75734100       5.85685800      54.82651400
H       11.21295500       4.32590100      53.82992200
H       12.01517100       3.58161600      52.53570800
H       12.78628200       3.63909000      54.12414500
H        8.97145900       6.39631500      50.89944700
H       10.32440600       7.18367900      50.29030400
H        9.59726000       7.56661300      52.01339100
H       12.12011300       4.47732200      50.57834900
H       13.02379400       4.20286700      49.08900000
H        0.23774100       8.57793200      48.39802800
H       12.38022000       8.49941900      49.20962400
H       12.29680200       7.89239800      47.55811900
H        1.82075800       4.29189900      49.15132600
H        3.22441200       6.65623500      52.00664600
H        6.45435900       2.27712500      50.32988700
H        4.97003300       1.43015500      50.70500800
H        5.99202500       1.91469600      52.01184100
H        3.17584900       7.25215200      49.94898900
H        6.42728300       3.27069500      47.03029400
H        7.68880000       3.37407900      48.05963300
H        5.51595700       7.39736700      50.81757300
H        6.49855500       6.12092500      50.30304800
H        6.83772100       7.63249400      49.65347700
C        6.80251200       8.76987500      68.71362100
C        5.98958200      10.10545500      68.54579200
C        6.41114300      11.20168200      69.67819300
C        7.94278900      11.17592600      69.78271300
C        6.03006900      12.58478000      69.24038100
O        6.36688500      13.60373800      69.81988200
O        5.11921600      12.63969700      68.23116700
C        4.62725900       0.22410600      67.69301400
C        5.87642000      10.82103900      71.18151400
C        4.33112700      10.67707200      71.49043200
C        3.52331900      11.89064100      70.82150200
C        3.80934400       9.37528900      70.84778700
O        2.59281800       9.26085800      70.50685100
O        4.72529700       8.35868400      71.00006300
C        4.39100900       7.02323400      70.61526600
C        4.26727500      10.67836400      73.03683700
C        3.03053300      10.28241500      73.93290500
C        2.98848700       8.75576600      73.94826700
C        3.24973800      10.72658500      75.47074500
O        3.40525900       9.92435400      76.38021600
O        3.49882200      12.04458400      75.61695800
C        3.51922400      12.65035500      76.86581700
C        1.71379200      10.95517600      73.40614600
C        0.36467400      10.85299000      74.20596100
C       13.48045100       9.40764700      74.40741500
C        0.44336300      11.65899000      75.55707600
O        0.80153500      12.81745100      75.63843000
O       13.64434700      10.88464100      76.57192000
C       13.54697200      11.42365400      77.91380700
C       12.95590400      11.61136900      73.20547200
C       11.42821800      11.80636200      73.42390600
C       10.82294300      12.81181800      72.34704900
C       10.70065500      10.45557400      73.37782900
O       10.64735200       9.83879700      72.33365900
O       10.14158300       9.99498700      74.51821600
C        9.46425800       8.73598900      74.49448000
C       11.15097900      12.34978600      74.84456300
H        6.90896400       8.26100600      69.73983000
H        7.75543400       8.78966900      68.19199800
H        6.24099200       8.08145700      68.11997800
H        6.14505400      10.51938500      67.54534500
H        4.94815300       9.82100200      68.50883700
H        8.45318500      10.18547300      69.80143000
H        4.98468700       1.11815900      68.12666000
H        4.84265400       0.24933000      66.58154600
H        3.52517800       0.24272100      67.60251700
H        6.25537600      11.60575400      71.75774800
H        6.46324300       9.99384200      71.57407600
H        3.91412100      12.89746400      70.92444200
H        3.51061100      11.61537200      69.76630400
H        2.46330500      11.96338800      70.90363000
H        3.36725500       6.96505400      70.24138800
H        4.45013400       6.38147200      71.53943500
H        4.62036800      11.68592200      73.39663300
H        5.20047600      10.15667300      73.37655800
H        2.37702200       8.28760100      74.67483200
H        3.25154600      11.92815700      77.56637500
H        4.48753400      13.07267500      77.10080500
H        2.90324700      13.47634100      76.90334100
H        1.77641600      12.00762900      73.37560100
H        1.62026100      10.68814600      72.32920400
H       13.50202800       8.95682000      73.38576400
H        0.42089700       8.83637100      75.16383000
H       12.82979400      10.97967900      78.58715400
H       13.15090300      12.35832400      77.87109200
H        1.00885000      11.46624000      78.29177800
H       13.29054200      12.69297300      73.16238700
H        9.82818400      13.03939700      72.57890200
H        8.90710900       8.52872400      75.38889700
H        8.76635400       8.76200100      73.62648600
H       10.11899900       7.87951600      74.19966900
H       11.65978300      13.28294500      75.06880700
H       10.07484700      12.55578800      75.01947700
C        7.17760100       5.45693900      54.94460500
C        7.04666200       4.03041400      55.64181200
C        5.66805600       3.30072100      55.96328000
C        4.68387400       3.74919100      54.84555600
C        5.92931300       1.77542800      55.89148900
O        5.12761000       1.03672200      55.32217600
O        7.05862100       1.40872100      56.49501400
C        7.24626400      13.57074700      56.60159300
C        5.12794100       3.69150500      57.42088600
C        3.65209900       3.57155900      57.89870400
C        2.77853400       4.68685700      57.31540700
C        2.95350400       2.25232200      57.43665700
O        3.36286800       1.14699400      57.85935500
O        1.73329400       2.38520500      56.81774800
C        0.94671200       1.33431700      56.37183400
C        3.49298100       3.66161600      59.50924700
C        4.66574200       3.39514500      60.58733100
C        5.14660900       1.89477400      60.35692000
C        5.78252200       4.28784400      60.58210400
O        5.74254100       5.47694000      60.26421000
O        6.92942400       3.66274200      60.92835900
C        8.15168800       4.38781100      60.95197400
C        4.03550000       3.44676600      62.07695300
C        3.04842900       4.52002100      62.56553800
C        3.62876900       5.93664900      62.39242600
C        1.58706600       4.34857800      62.04659900
O        1.18429000       3.18785400      61.84384000
O        0.91700700       5.42740500      61.79579400
C       13.18171300       5.34764000      61.36576800
C        2.93601800       4.45590000      64.12183800
C        2.22168500       3.37709700      64.93183700
C        0.62296700       3.52803900      64.94176400
C        2.76653000       3.57619800      66.39325200
O        1.99532300       4.06365600      67.27503300
O        4.04111500       3.26382800      66.64617100
C        4.71392200       3.92757100      67.74277900
C        2.51882400       1.85961700      64.56902800
H        8.24138900       5.60074000      54.71147400
H        6.61645800       5.56952000      54.00686400
H        6.84329800       6.34282000      55.54224100
H        7.73562600       4.12609300      56.47804700
H        7.65232200       3.34122800      55.03239400
H        3.70856700       3.18857600      54.89017300
H        4.51009300       4.85804200      54.99649300
H        8.31339200      13.37385000      56.75751700
H        5.64317600       3.03268200      58.15839100
H        3.17693900       5.72659600      57.45241400
H        1.82929500       4.55793400      57.79121400
H        2.56645300       4.59362500      56.23383700
H       13.52260400       1.63880100      56.23966700
H        1.34698000       0.87456100      55.50407300
H        0.99128000       0.55259600      57.13404200
H        2.50817800       3.20714800      59.71727900
H        3.30688600       4.70383100      59.82045600
H        4.35787000       1.27705700      60.10818700
H        5.93981400       1.75086800      59.58961200
H        8.26229500       5.04216600      61.77780700
H        8.18286400       5.01109200      60.10142700
H        8.96351400       3.67209800      60.90321300
H        4.89032900       3.41388200      62.77090900
H        3.59537700       2.46288600      62.26728600
H        3.26530000       6.70741600      63.00830700
H        4.67877800       6.00800800      62.58466300
H       12.53629800       4.65059200      61.92272900
H       12.63059300       6.27958800      61.45289400
H       13.27295800       5.12164100      60.23838300
H       13.67066100       2.95732200      64.16011400
H        0.29809300       4.54365000      64.88613500
H        4.06754900       4.33157900      68.43765400
H        5.17241100       4.74479200      67.35343400
H        5.33443100       3.15723300      68.29880600
H        3.58114800       1.62342700      64.36083500
H        1.86637400       1.53413500      63.72674500
H        2.26966400       1.14173400      65.42884800
C        8.70206200      10.64405400      60.90665700
C        8.29548800      12.01464300      60.33788200
C        9.38849100      13.11371800      60.27222600
C        8.74268200       0.89563000      60.14260100
C       10.25840100      12.85906700      58.96337000
O       10.69750100       0.16159500      58.27836400
O       10.65833500      11.62595700      58.79559600
C       11.71629200      11.30052800      57.91306800
C       10.32738300      13.08946300      61.47454000
C       11.15715100       0.69709800      62.00491900
C       11.88238400       1.31283400      60.86814900
C       10.29369900       1.80931500      62.65679400
O       10.76672100       2.94794000      62.75772300
O        9.05406100       1.48474900      63.14831700
C        8.27551300       2.49976000      63.85521700
C       12.25890000       0.17334600      62.95457600
C       11.99939900      13.20525200      64.48649300
C       11.48969200       0.73089700      65.40029900
C       10.84380700      12.16696600      64.38441800
O       10.89003800      11.12782600      63.77066900
O        9.84140200      12.43744200      65.19271500
C        8.72885200      11.47108200      65.30231400
C       13.32003600      12.61414300      64.98884200
C       13.54845500      11.92072500      66.38919600
C        1.42302200      11.40963600      66.40663300
C       13.35520600      12.96910400      67.52147200
O       12.40846500      13.04103800      68.32462600
O        0.89803800      13.64398900      67.58041500
C        0.99489500       0.96022400      68.71747200
C       12.54900500      10.68688300      66.38495300
C       12.76634900       9.51551000      67.43977900
C       13.00384900       9.92901500      68.87213900
C        0.37322400       8.58269500      66.92329100
O        0.31719300       7.98985600      65.81821000
O        1.39553700       8.44404700      67.83188100
C        2.62685700       7.79652400      67.48255400
C       11.45155100       8.69113500      67.32155000
H        7.84612400       9.99344100      60.76623300
H        9.54909600      10.26284900      60.41248100
H        8.83028200      10.67737400      61.99595500
H        7.87375300      11.80119300      59.34384900
H        7.36807700      12.36528200      60.78732300
H        8.09239700       0.89011300      59.18582100
H        9.40450900       1.71889000      59.99238900
H       12.58283300      11.91867900      58.15705100
H       11.94670100      10.25339100      57.97501200
H        9.59378100      12.95502200      62.24493800
H       10.95888400      12.28071100      61.41431700
H       12.68278200       1.99449400      61.14574100
H        7.28043700       2.12633900      63.93292800
H        8.17260900       3.43916400      63.49797200
H        8.53672100       2.56164800      64.90280200
H       12.82467800       1.08209800      63.22242900
H       13.05374800      13.12963900      62.48034100
H       12.16086100       1.61506400      65.46546900
H       11.22036200       0.49612300      66.37010700
H        7.84412900      11.85738700      65.92044100
H        8.26847600      11.31950900      64.33950300
H        9.16544000      10.57299800      65.84885200
H        0.43154700      13.43467600      64.99561200
H        2.01407400      12.17255100      65.99120300
H       13.64544300       1.52844200      68.82816600
H        1.68435700       1.77715500      68.46785400
H       12.43956100      10.21206700      65.38435100
H       11.59946000      11.07989700      66.76059600
H        0.42383400      10.33758700      69.14839200
H       12.82999200       9.05535000      69.46478500
H        2.62137500       7.47728300      66.44855600
H        2.78219800       6.94643100      68.12918300
H       10.53456200       9.25052900      67.45271500
H       11.36053100       8.27624000      66.35261600
H       11.37172600       7.79644200      67.84847100
C        7.36715100       6.04950800      14.19339500
C        8.69520000       5.27129700      13.77337000
C        8.84314700       3.83754900      14.18608000
C        9.95521800       3.16172500      13.26721600
C        9.24972800       3.89373500      15.70195900
O        8.45879700       4.10725900      16.59395600
O       10.48507400       3.74423700      15.89027600
C       10.94812100       3.61765200      17.23916800
C        7.48007300       2.97298000      14.12903200
C        7.49296000       1.36442700      14.23898400
C        8.31987500       0.82963700      15.43218500
C        6.02771200       0.93329200      14.61690800
O        5.10528900       1.50315500      14.04445100
O        5.92139200      13.64552500      15.63267000
C        4.67575200      13.15975200      15.97000700
C        7.99303200       0.71000600      12.86252900
C        7.32400100      13.02254600      12.27255700
C        5.86752500      13.14196500      11.63832900
C        7.35790700      11.72783800      13.20807800
O        6.33393000      11.06170700      13.49006400
O        8.59200300      11.44357600      13.69729200
C        8.83327000      10.28419700      14.51473700
C        8.25504400      12.77949800      11.01394000
C        8.06812900      11.72162800       9.80989400
C        7.28452700      12.33463700       8.51180000
C        7.29835300      10.51954200      10.48877600
O        6.20474900      10.22454600      10.16229800
O        8.19370200       9.65994600      11.11622500
C        7.77357800       8.45456500      11.58571900
C        9.45080100      11.12512100       9.28126800
C       10.33864700      11.87174300       8.22880900
C        9.80520700      11.75943100       6.76785800
C       10.76043300      13.33147900       8.52158700
O       11.30497500       0.29447400       7.52235300
O       10.60324700       0.21192500       9.68628000
C       11.32076400       1.38086500       9.99064700
C       11.68769600      11.11007100       8.27205500
H        6.49792200       5.82638100      13.57418900
H        9.57569100       5.90406100      14.10272000
H        8.78856700       5.27327700      12.71521700
H       10.83339900       3.76591600      13.33826500
H        9.73621800       3.07845600      12.22938600
H       10.40491200       2.25384100      13.67938400
H       10.73802000       2.65106000      17.60940700
H       10.38664500       4.21817300      17.97563100
H       11.90806500       3.90393700      17.45854100
H        6.78171400       3.38700200      14.79724300
H        7.14149400       3.23000500      13.13385600
H        8.33814200      13.31464700      15.59077500
H        9.30417400       1.22171500      15.38121700
H        4.65209100      12.09514100      15.86984100
H        4.46562600      13.25904800      16.98688400
H        3.89320000      13.56186700      15.43666100
H        7.94651800       1.43534000      12.08972400
H        9.10701500       0.54191500      12.97684300
H        5.95566700       0.32429500      10.89496700
H        5.37959800      12.21302900      11.29605500
H        9.59279600       9.60817100      14.17570200
H        9.15116500      10.69606100      15.50243600
H        8.04533000       9.59041100      14.50718800
H        8.16020400       0.21048100      10.62475900
H        9.29718500      12.57157100      11.39133300
H        6.27727500      12.59908200       8.83167300
H        8.59056800       7.90470500      12.03301500
H        7.28986800       7.80433400      10.89431200
H        9.24878200      10.22436200       8.79378000
H       10.05903900      10.77368400      10.15465400
H        9.01680500      12.51339700       6.65024100
H        9.49658500      10.72299200       6.66551500
H       10.51925300      11.94269500       5.96053400
H       11.28400200       1.53467400      11.07556900
H       10.92239900       2.25082400       9.56424000
H       12.36764900       1.30411700       9.73384800
H       12.54415900      11.54627200       7.68051100
H       11.55335400      10.01315500       8.14959500
H       12.10980300      11.05820000       9.27629900
C        5.56624400       9.16491800      91.05475200
C        6.67487300       9.95153100      90.35938400
C        6.40625800      10.57724900      88.94619000
C        5.79092600       9.54175100      88.02699800
C        5.46346400      11.74532600      89.17874500
O        4.25641000      11.57362600      89.00384800
O        6.00388200      12.78633400      89.87086700
C        5.09724100       0.12608400      90.41908300
C        7.82436800      11.11765600      88.47496400
C        8.18284500      11.49022700      87.01744500
C        8.42274600      10.14235300      86.26058100
C        7.01798200      12.16012100      86.32985400
O        6.64364800      13.24745600      86.77899100
O        6.73611100      11.66755500      85.08721100
C        5.94625000      12.51004500      84.28331100
C        9.31716100      12.51766100      86.88491100
C       10.82920300      12.32413700      87.23896800
C       11.04758300      12.48271000      88.81453400
C       11.35574400      11.03138700      86.80791200
O       11.40277800      10.10534900      87.60514300
O       11.44732100      11.02752500      85.49000400
C       11.79195500       9.93069200      84.69618800
C       11.60004200      13.45451800      86.50187000
C       13.12195800       0.16365300      86.53433000
C       13.31453000       1.23439100      85.44621000
C       13.36065100       0.78623100      87.93680200
O       13.31940500       2.01661400      88.13695300
O        0.13268900      13.45755900      88.78268600
C        0.49344100       0.25492500      90.05886000
C        0.38626100      12.50572700      86.16062100
C        1.92812100      12.68512900      86.00443400
C        2.50169200      11.30583800      86.24575100
C        2.24238900      13.21001600      84.57789600
O        2.20545600      12.47260700      83.60815000
O        2.73019700       0.86954300      84.54637400
C        3.11106800       1.32761200      83.19225200
C        2.62423300      13.57516100      87.07643900
H        5.29751400       8.17159100      90.54869500
H        5.72171800       9.04221600      92.15503800
H        4.63661700       9.75707800      90.94474200
H        7.01516800      10.69587900      91.03907200
H        7.50824100       9.23811600      90.23727800
H        4.82911300       9.19329200      88.46223100
H        6.38849300       8.67851500      87.75672300
H        5.49277200      10.08040500      87.10458400
H        4.25210700      13.37090800      90.96210400
H        4.76202000       0.89054200      89.74320100
H        8.61285100      10.32122600      88.74534600
H        7.99050300      11.96507800      89.05839500
H        7.50484800       9.63448500      86.06731500
H        8.75097800      10.25013800      85.24831900
H        4.97626800      12.74871800      84.75220000
H        6.45038400      13.40175200      84.07529800
H        5.87962800      12.08277400      83.28373300
H        9.12263800      13.38185100      87.50766300
H        9.32899200      12.84409200      85.85105000
H       10.27701800      12.03748600      89.30279800
H       11.85654800      11.97511200      89.27873400
H       12.88449700       9.96666500      84.53053600
H       11.48159800       9.01537200      85.23590000
H       11.37021700       9.94909500      83.68768300
H       11.06878900       0.72401000      86.89141200
H       11.31409200      13.44541400      85.48110300
H        0.69229800       1.77708400      85.44594500
H       12.55569300       1.96851000      85.43629600
H       13.32572500       0.77214700      90.47164900
H        1.37237500       0.93101200      90.19190200
H        0.68273100      13.00126200      90.68570200
H        0.22028200      11.76495800      86.88879700
H       13.58299500      12.11635500      85.20411100
H        2.16879300      10.58494200      85.50963500
H        2.27265800      10.88900200      87.31586300
H        3.56508800      11.22552100      86.22529700
H        3.79211900       0.50268500      82.79448200
H        3.69365300       2.29653900      83.34508000
H        2.25067700       1.51446500      82.47885600
H        3.68857000      13.57612200      86.95193000
H        2.26333300       1.02137300      87.29557200
C        3.27937300      12.59344400      97.60390200
C        4.53924000      13.23516100      98.13477300
C        4.84750100       1.13994200      97.89254100
C        6.25052800       1.44545600      98.35143800
C        4.80436600       1.52554000      96.37437200
O        4.88719900       2.72995600      96.08840400
O        4.68788000       0.48085300      95.56694000
C        4.41123100       0.61250700      94.23682500
C        3.84826000       2.12385200      98.62490500
C        3.39286100       2.03882100     100.14763400
C        2.91292400       3.43965900     100.49706700
C        2.15280100       1.16263900     100.16802200
O        1.05830800       1.38184800      99.56113000
O        2.39047700      13.62721800     100.88131100
C        1.43256500      12.63970000     100.75437000
C        4.50103800       1.64782800     101.20931300
C        4.42351300       1.77884600     102.76286200
C        4.43337000       3.23409200     103.34519200
C        3.22694400       0.98432900     103.28703300
O        3.22018400      13.37297200     103.50955600
O        2.17933200       1.72218800     103.39876400
C        0.85457800       1.22358700     103.83614400
C        5.67710700       0.99313900     103.32935800
C        7.08205600       1.64933600     103.65055200
C        7.62370100       2.29237900     102.42129500
C        6.99795300       2.59841900     104.88428100
O        7.16366000       3.80635400     104.77913200
O        6.68599300       1.95201100     106.05957100
C        6.49291900       2.66871200     107.25036000
C        8.03266800       0.40193700     104.03824800
C        9.46033600       0.44510300     104.58284900
C        9.81543200      12.50072400     104.92123100
C       10.36825200       1.12684900     103.49967400
O       10.80183000       2.21079100     103.71574100
O       10.61233400       0.23141000     102.57504500
C       11.48675800       0.67004300     101.52989600
C        9.65631300       1.25542400     105.94237900
H        3.48739100      12.16379200      96.64746900
H        2.53385100      13.34186700      97.42914300
H        2.97311300      11.87064500      98.32419900
H        4.61679400      13.17232900      99.25176200
H        5.32488100      12.48532100      97.84608200
H        6.50545700       1.50366000      99.38783500
H        6.63420500       2.34577300      97.87013200
H        6.88233600       0.62633000      98.00174400
H        4.49317100      13.23530900      93.81925400
H        3.39381000       0.90349700      94.19434900
H        5.01997700       1.41742000      93.75366700
H        4.32419800       3.10391400      98.41049800
H        2.93681500       2.34518300      98.11171100
H        2.15282000       3.66247100      99.70304900
H        3.60235600       4.32061900     100.38242300
H        2.33927100       3.46525800     101.41326700
H        0.56167100      12.88437900     101.35809300
H        1.75911200      11.69583700     101.17706400
H        1.33103000      12.57224800      99.63996500
H        4.65327900       0.62169200     101.06739800
H        3.69707300       3.80433300     102.90492500
H        0.63334700       0.20823300     103.45562600
H        0.72180700       1.12992900     104.89935200
H        5.43754400       0.72594800     104.26170400
H        8.39899800       3.01108000     102.72905700
H        5.68522900       3.40468000     107.10321400
H        7.39767100       3.14298900     107.64284300
H        6.18417700       2.03078200     108.06444500
H        8.11471400      13.30726900     103.19166200
H        7.43111100      13.55231900     104.77444100
H       10.78250900      12.39498500     105.38180500
H        9.18287500      12.08251100     105.63399000
H       11.67924600      13.44373800     100.85231600
H       12.39313200       1.01790900     101.84272400
H        9.00585300       0.85068800     106.62180500
H        9.49687700       2.29799900     105.82212200
H       10.68339600       0.99629400     106.13175300
C        3.00681900      10.29351000      50.85516200
C        3.23498800      10.40640800      52.42680200
C        3.14757300      11.84030700      52.97197800
C        4.26915200      12.65922800      52.31794100
C        1.73756400      12.46459600      52.60216000
O        0.75256800      11.81313500      52.25840700
O        1.79272500       0.15626500      52.48932700
C        0.80725600       0.92064500      51.80455500
C        3.30201400      12.00871200      54.55582700
C        2.79856600      10.96688300      55.67544800
C        1.23062400      10.72831400      55.44964200
C        3.63971300       9.66977900      55.53081400
O        4.82484600       9.70288100      55.24109100
O        2.85152800       8.55710700      55.26161500
C        3.52134700       7.33904000      54.84247400
C        2.87158700      11.58733700      57.06342600
C        2.98251000      10.77255000      58.38702100
C        2.01789700       9.57469000      58.43733500
C        4.50153000      10.28099700      58.50536300
O        5.48593400      10.98596200      58.50559200
O        4.57051200       9.00483200      58.61226500
C        5.80469300       8.36702400      58.67474000
C        2.75375000      11.83966100      59.50295000
C        2.67018200      11.35291700      60.96578800
C        2.53176600      12.62931500      61.82085300
C        1.27735100      10.66258600      61.13054800
O        0.32658000      11.38457900      60.94361600
O        1.30174900       9.33456600      61.39866500
C        0.18587100       8.82725600      62.17540800
C        3.86077500      10.47654200      61.34353900
C        4.28231400      10.29555700      62.90964200
C        3.18488600       9.69893700      63.84350900
C        4.66295000      11.62949700      63.59079800
O        4.40639700      11.94442400      64.74497400
O        5.55612400      12.33095900      62.86032900
C        6.23887000      13.34106600      63.57140200
C        5.46134400       9.31938000      63.02974100
H        2.77859500       9.27925200      50.41967100
H        2.14352300      10.88690900      50.49898600
H        3.85545000      10.69861600      50.21913500
H        4.28961900      10.10055600      52.60967100
H        2.55492300       9.71923700      52.91859900
H        4.17616000       0.13076900      52.58812500
H        5.29997500      12.36395100      52.56766100
H        0.10575300       0.30142000      51.28893800
H        0.34947200       1.57352200      52.51779600
H        4.40256600      12.00389300      54.85039900
H        3.01110800      13.00930900      54.72722100
H        0.84504700       9.94779000      56.18729600
H        1.06221900      10.27247100      54.48863800
H        2.83295100       6.71234800      54.42506600
H        4.20302300       7.50120800      54.10828900
H        2.06682200      12.35521100      57.25100700
H        3.83738200      12.15548900      57.04711800
H        0.99773500       9.90579000      58.58154100
H        2.13707400       8.95020900      57.58291900
H        2.38138100       8.92593900      59.28760600
H        6.61158300       8.80304300      57.98080000
H        5.62379200       7.30256200      58.50587600
H        6.10293400       8.46870300      59.69188400
H        1.93959500      12.51625500      59.41720600
H        3.47939200      13.21449200      61.73114300
H        2.20101200      12.52461000      62.85082500
H       12.91494400       8.80199100      61.59341300
H        0.53135300       7.88294200      62.58453400
H       13.67224400       9.52842800      62.97870400
H        4.70065900      11.02800300      60.95945200
H        2.89413000       8.69853000      63.52662800
H        3.32268900       9.63152900      64.85463400
H        6.55087300      13.05233600      64.54001500
H        5.68685500       0.65755300      63.62832400
H        7.12931300      13.57575100      63.05009500
H        6.28734600       9.71678600      62.55228900
H        5.85708600       9.37676500      64.09798900
C        3.20569500       7.13235300      44.03536700
C        3.34494100       6.35159800      42.70681000
C        3.00441700       7.08264500      41.40315200
C        1.51504600       7.52432300      41.57036000
C        3.97602800       8.31127600      41.17655600
O        5.16193300       8.13616800      41.07564100
O        3.33436100       9.55865500      41.24719700
C        4.02876200      10.74889400      41.32733300
C        3.25981900       6.17092200      40.13842700
C        2.30702100       4.94115700      39.67062600
C        3.18645800       4.37416600      38.57956600
C        2.04964500       3.88369700      40.82505700
O        1.05261500       3.99842700      41.50076200
O        2.92996100       2.88036400      40.78382100
C        2.79618300       1.86873000      41.82590300
C        0.99527100       5.56253000      39.13680600
C       13.67022300       4.78557500      38.15262300
C       13.54566000       3.29333400      38.54503600
C       12.24518500       5.46479600      38.33828900
O       12.15777800       6.67235800      38.57106000
O       11.26845900       4.56265600      38.24160900
C        9.99051200       5.07921600      38.63385000
C        0.37222500       5.06307900      36.58063700
C       13.46068200       4.23513100      35.33363800
C        0.63314100       2.94074300      35.30922100
C       12.01378500       4.05335000      35.55978300
O       11.29169700       5.05211000      35.52670500
O       11.64714400       2.76438400      35.53793300
C       10.32466300       2.42801200      35.73775700
C        0.11801300       5.02328800      34.02460800
C       13.58138900       4.35651800      32.61277600
C       12.08113600       3.90144200      32.39679900
C        1.05399600       3.23247000      32.36450600
O        2.22991400       3.39041800      32.57001500
O        0.39684500       2.09611800      32.03534400
C        1.13887500       0.84766400      31.93536400
C        0.24412400       5.44091000      31.58711700
H        3.97552900       7.93165500      44.03452700
H        2.27639900       7.52629900      44.23140700
H        3.48260800       6.50155200      44.88349000
H        2.64004600       5.44595500      42.79698000
H        0.97197500       7.78275500      40.64857300
H        3.49341500      11.56622300      41.83525100
H        5.02352500      10.60122500      41.80792900
H        4.30271500      11.11076800      40.36431000
H        3.35571100       5.12782900      37.77326500
H        2.76290800       3.47827800      38.11114000
H        4.18460200       4.01077800      38.99313600
H        1.74366300       1.54738000      41.79123500
H        2.87183300       2.27039100      42.89763800
H        3.44329200       0.94723500      41.60454400
H        1.14118700       6.56529400      38.69990600
H        0.32546900       5.74160700      40.00677300
H       12.69361600       2.85158500      38.08107200
H        0.83209200       2.74178000      38.26833900
H        9.67087500       5.66939300      37.79748500
H       10.00018200       5.63281500      39.61150100
H        1.43717100       5.34335100      36.45667000
H        1.70564400       3.17013400      35.44204700
H        0.33694300       2.35728000      34.54715600
H        0.37154800       2.32465200      36.18050500
H       10.00303000       2.57223100      36.79600200
H       10.12206700       1.39005700      35.40410800
H        9.67808200       3.18195900      35.17895400
H        1.04169700       5.52749800      34.18502700
H       11.30021700       4.62971500      32.66158800
H       11.92308600       3.63214200      31.36948700
H       11.82072000       3.03781300      33.03669500
H        1.90613200       1.04176500      31.16292500
H        1.63986200       0.68304100      32.87294100
H       13.30541900       6.37222700      31.85342500
H       13.62962200       5.14173800      30.55355700
C        6.36349500       7.77242300      79.28326300
C        7.07697900       9.09697500      79.33765800
C        6.41577300      10.28370500      80.06565800
C        5.21529800      10.77462400      79.20397600
C        5.89566700       9.84529400      81.38834200
O        6.62752700       9.23024600      82.14110400
O        4.59949000      10.17057800      81.67436700
C        3.95910300       9.53858500      82.81109800
C        7.40507800      11.38915900      80.44059800
C        8.44603000      11.96389800      79.42285700
C        9.70162000      11.02539300      79.15961800
C        7.71290800      12.23083500      78.10077900
O        6.70383200      12.93923900      78.07119100
O        8.12489100      11.59439500      76.99063900
C        7.42991700      11.76346800      75.78719900
C        8.92581500      13.29979800      80.01002500
C        9.90247400      13.47898500      81.17690200
C        9.44460100      12.77859800      82.43099100
C       11.38753300      13.00050400      80.78193700
O       11.87414200      13.40913800      79.77707200
O       11.99613800      12.31777200      81.75116300
C       13.43072500      12.10339900      81.83575800
C       10.32666200       1.38827500      81.42333100
C        9.26874400       2.53762900      81.91607000
C        9.62920100       3.82289600      81.27158000
C        7.81734400       2.20666500      81.47290800
O        7.04558300       1.56206000      82.21836100
O        7.52482000       2.67040900      80.27082600
C        6.19928100       2.49942000      79.85073300
C        9.31701800       2.49988100      83.46657000
C        8.67757600       3.66362000      84.29685900
C        7.10302500       3.80459100      84.00464200
C        9.34110200       5.12976800      84.01892300
O       10.55607500       5.28185500      83.87034400
O        8.47362700       6.02745200      83.98624800
C        8.93030500       7.43219700      83.90679900
C        8.94201500       3.35979100      85.79453200
H        5.49650100       7.87090800      78.68412500
H        6.89751700       6.97666500      78.88848700
H        8.07772100       8.97849200      79.75870600
H        7.26730300       9.28749600      78.30260400
H        4.93023600      11.80829900      79.35651400
H        5.50442000      10.59187000      78.17501700
H        4.30843200      10.25105300      79.50674300
H        2.96862000       9.94381200      83.14641100
H        3.77497800       8.48605000      82.53132000
H        7.93726700      11.08744100      81.32281000
H        6.82728000      12.24536300      80.79661400
H       10.50441300      11.62824300      78.66375200
H        9.53732100      10.19509500      78.50899100
H       10.12741600      10.63001200      80.09499400
H        6.42688800      11.28993500      75.82801100
H        7.39517100      12.82413900      75.50508100
H        9.29980600       0.28683600      79.15798500
H        8.12449000       0.39710900      80.04472200
H        8.38972100      13.11077500      82.60341000
H        9.43517300      11.69138600      82.43240200
H       13.64252600      11.40992300      80.99699900
H       13.64703400      11.59127300      82.71379200
H        0.46824000      12.98771100      81.72942500
H       11.35574700       1.40932500      81.92149100
H       10.52405300       1.75346000      80.43356300
H        8.92069200       4.60941200      81.39113900
H        6.17601400       2.80573700      78.76651500
H        5.42367000       3.04047600      80.40265100
H       10.30629500       2.58631500      83.74240900
H        8.97642000       1.56737600      83.79507600
H        6.44241600       2.98989800      84.16376600
H        6.73068600       4.49821700      84.69226500
H        8.11176700       8.16513500      83.89161300
H        9.57178600       7.81173400      84.78633900
H        9.37693800       7.81337100      83.06153800
H       10.03675300       3.22005400      85.99444000
H        8.61173400       2.33169700      86.10938700
H        8.42807800       4.04162600      86.49989000
C        1.93620100       9.78265300      94.43827900
C        1.33907400       8.32240300      94.35676600
C        0.53487300       8.07296300      93.07330100
C       12.85675600       8.94776100      93.16264700
C        1.37462900       8.49092800      91.80434000
O        2.54433100       8.09723800      91.59789500
O        0.73102700       9.34285800      90.95767500
C        1.44110200      10.11541600      90.04620000
C        0.15311000       6.54291900      93.05918400
C       12.73153700       5.90152000      92.03071200
C       13.14058600       6.37476600      90.59799400
C       11.28651300       6.43215100      92.16444800
O       10.82091200       7.00468300      93.14843300
O       10.56130000       6.31862500      91.01441800
C        9.31065000       6.97626600      90.76576000
C       12.65044100       4.30691600      91.97000200
C       12.53916400       3.46053900      93.28012000
C       11.33313200       4.05431200      94.00919000
C        0.23522600       3.53088700      94.12646100
O        1.24445800       2.98301100      93.68726900
O        0.11486900       4.03692100      95.38347300
C        1.28314500       4.23955000      96.18332700
C       12.30363300       2.02310700      92.81114800
C       11.88675000       0.82364000      93.83144200
C       12.22208900      12.99159700      93.18631200
C       12.67746800       0.96269500      95.17256600
O        0.23679600       0.52267800      95.28623600
O       11.92599400       1.37996900      96.21778700
C       12.51270700       1.25345800      97.52898200
C       10.27384200       1.00070000      94.00215800
C        9.25879600      13.53477400      94.38251300
C        7.81402200       0.50522100      94.41868800
C        9.56674000      12.92802100      95.75911300
O        9.96045200      11.80156600      95.87343500
O        9.01970800      13.62501400      96.81393800
C        9.17508300      12.99394100      98.10662100
C        9.20557900      12.40071900      93.30401800
H        2.76252100       9.77594300      93.65183600
H        2.44979300       9.92946900      95.44166700
H        1.21619900      10.58948400      94.31962700
H        0.78872600       8.13690300      95.28605200
H       12.25887900       9.02246400      92.32207500
H       13.09881200       9.97449000      93.38731100
H        0.94137300      10.11740000      89.13660000
H        1.50682000      11.18659300      90.38943600
H        1.07711000       5.91923500      93.06080300
H       13.30724100       6.30832400      94.05076900
H       12.53699800       5.81376000      89.87120300
H        0.51195900       6.27793700      90.22683200
H        9.08498200       6.90855800      89.69869600
H        9.41540300       8.01734900      90.95882300
H        8.62298600       6.52875300      91.47035100
H       11.85394300       4.01785300      91.29487500
H       13.53189100       4.01708100      91.40026900
H       11.11995000       3.46154500      94.90107900
H       11.39566200       5.07822100      94.29196600
H       10.38371400       4.00480100      93.50344300
H        1.74401200       3.19525000      96.37287400
H        1.00182700       4.65566900      97.07883600
H       13.17639400       1.64888300      92.38966000
H       11.61149700       1.96920600      91.92091300
H       11.69726000      12.83376200      92.30598500
H       12.04464300      12.21228400      93.93296800
H       13.21153500      12.93617500      92.73855900
H       13.56004400       1.70709300      97.53279100
H        9.95959300       1.77045800      94.75743500
H        9.78528200       1.39363300      93.15879700
H        7.67790400       1.13696700      95.20332600
H        8.72290600      13.56330400      98.92632900
H        9.27336800      12.81024400      92.34440000
H        8.32715000      11.71655700      93.45321800
H       10.01866800      11.67197000      93.41341600
C        9.07803200       8.11454000      47.66740400
C        9.46269600       8.64934400      46.28843400
C        8.41868700       8.82215000      45.16711000
C        7.56096700       7.52888500      44.90981500
C        7.37491300       9.95043800      45.50872200
O        7.69550300      10.76085600      46.38916800
O        6.16337700       9.78589400      44.90718500
C        5.14002600      10.73745200      45.11542800
C        9.01119800       9.27370900      43.78690000
C        9.47234900      10.69822000      43.32561400
C       10.36647000      11.37046400      44.40051700
C       10.30957100      10.40967500      42.00461500
O       11.36393700      11.03730100      41.79030200
O        9.94523600       9.37106500      41.28814300
C       10.62339400       8.88640600      40.07540400
C        8.18288600      11.61572700      43.06692800
C        8.20279100      12.91569100      42.19101400
C        8.30473400      12.52934200      40.69102800
C        6.85448700      13.58084200      42.42661300
O        5.91417400      13.49810500      41.60304800
O        6.83572500       0.52260300      43.54902400
C        5.74005500       1.33237800      43.94329200
C        9.31420200       0.30725000      42.59254800
C        9.57862900       1.80231300      42.00609500
C       10.89789600       1.67134400      41.33395300
C        8.46738600       2.25116600      41.04400700
O        8.48798100       2.23837700      39.84670200
O        7.39023200       2.73713200      41.67189800
C        6.27219200       3.19912400      40.93824600
C        9.72797200       2.82860700      43.15605600
C       10.17704500       4.34764000      42.95097200
C       11.41163800       4.50804100      42.01039400
C       10.56675200       5.03499700      44.25147400
O       10.82582300       6.27825200      44.21720000
O       10.59795200       4.23363000      45.35043900
C       11.08758600       4.81002200      46.53689700
C        8.93419300       5.08085300      42.38246800
H        8.76953700       7.08595900      47.67728300
H       10.26833700       7.97885100      45.90993200
H        9.87882900       9.68447000      46.44545300
H        8.18450000       6.60241900      44.90091800
H        6.87011000       7.35350400      45.70428900
H        7.04493400       7.46192600      43.98107700
H        4.91047000      10.66936800      46.20437300
H        5.44927300      11.74132700      44.80966600
H        8.25516000       9.13994600      42.98211700
H        9.86402500       8.59072600      43.46563600
H       11.06636600      10.58421900      44.63255700
H       10.98224700      12.23552900      44.01296900
H        9.84667100      11.58519400      45.29805400
H       11.03446000       9.76702600      39.56416800
H       11.45513300       8.27892500      40.30149600
H       10.02457900       8.27948800      39.34099900
H        7.73724600      11.88495800      44.03884200
H        7.43161700      10.92323100      42.70048500
H        9.27775600      12.08700600      40.45609500
H        8.14236200      13.48343300      40.10981700
H        5.42078000       2.04990300      43.28569200
H        5.89182500       1.80258800      44.89135100
H       10.13798200      13.20581400      42.24490000
H       11.77463200       1.55592100      42.00295100
H       10.99299100       0.78886700      40.75562800
H       11.17106700       2.41354000      40.60138200
H        5.61248800       2.38172500      40.69194800
H        6.59352500       3.70677700      40.01972000
H       10.38855100       2.32410800      43.87907100
H        8.73744900       2.80143200      43.69549800
H       11.79163400       5.54643100      42.14915400
H       11.25597900       4.32132500      40.97922500
H       10.74508400       5.82384600      46.72837700
H       10.74563000       4.19425900      47.33417400
H        8.68272200       4.91516800      41.28091700
H        9.20675400       6.15030600      42.40802000
C        7.98124300       0.20496400     146.04019600
C        9.51664000      13.67098700     145.96465900
C       10.17290900      12.39552800     146.69258400
C       11.61031100      12.29581600     146.15216100
C       10.22534900      12.63770900     148.24102600
O        9.19990300      12.66136300     148.91094500
O       11.47524200      12.37504300     148.75297700
C       11.63937600      11.94539000     150.10763700
C        9.37017000      11.08267900     146.64517300
C        9.31312400       9.99241400     145.52967700
C        9.06851700      10.69060400     144.21356200
C       10.59472500       9.18784400     145.31220100
O       11.50122600       9.11788700     146.13935600
O       10.70223600       8.57360300     144.17323600
C       11.72843700       7.61495700     143.90170300
C        8.05860900       9.13059300     145.78277800
C        7.86456100       8.22626900     147.10594600
C        6.40463800       7.65548600     146.99102700
C        7.90655200       9.05220600     148.38780100
O        6.87155100       9.57817000     148.77140900
O        9.01065100       8.88625300     149.16658300
C        8.97896300       9.58743600     150.39031300
C        8.85167400       7.02483100     147.30074400
C        8.71592400       5.66748400     146.48142700
C        8.35267100       5.85818500     144.97455300
C       10.06362200       4.92099100     146.34223800
O       10.04298100       3.79154300     145.85094900
O       11.14332900       5.58564000     146.64746600
C       12.42492900       4.98745000     146.72391000
C        7.69836400       4.67451100     147.20956600
C        7.47158800       4.23883000     148.73031900
C        6.37998900       5.03446200     149.44254500
C        8.76722600       4.21752900     149.41989600
O        9.70274200       3.45489500     149.06763200
O        8.76178500       4.94704000     150.49168700
C        9.94069700       5.27466700     151.10505600
C        6.96341600       2.78137800     148.77460700
H        7.45177300      13.52418800     146.99716800
H        7.58013500       1.26983400     145.95525400
H        7.57973200      13.41656700     145.12816800
H        9.91242900       0.10396800     144.91807900
H       12.13789300      11.58390600     146.70558400
H       11.68445600      12.09169600     145.11818800
H       12.12598700      13.29757500     146.18877200
H       11.36394400      12.63192300     150.91201600
H        9.64104700      10.49801900     147.47108100
H        8.41615600      11.46286100     146.89733700
H       11.50287100       6.68221200     144.37156100
H       12.67924400       7.89316300     144.47300700
H       11.87602700       7.59193900     142.82983800
H        7.88874000       8.51209800     144.87754400
H        7.20852200       9.79297300     145.76249600
H        6.24028000       7.07906100     147.87641800
H        5.62713000       8.45742800     147.19916500
H        9.06140300      10.68169100     150.32704600
H        8.98641700       6.79248300     148.36454700
H        9.81323300       7.40001000     147.02051200
H        8.25813200       4.96053100     144.37851100
H       13.29761300       5.67781100     146.64249000
H       12.43148700       4.45322800     147.72458700
H        6.70842100       5.06973800     147.07982700
H        7.71990400       3.73999900     146.61998000
H        6.71762800       6.07850200     149.75736800
H       10.39571900       4.41058600     151.55930600
H        9.68356400       5.94415400     151.98054900
H       10.67253700       5.77173700     150.37605200
H        6.85136000       2.39671900     149.79629500
H        5.98796100       2.68515100     148.37934100
C        3.45368800       8.69665400     103.03748400
C        3.50789700       8.92562200     101.50818700
C        4.91156200       9.44662700     101.03304700
C        5.16792000      10.80176000     101.61023700
C        6.09098600       8.55127400     101.54466200
O        7.17196100       9.04455100     101.67420000
O        5.82020200       7.38447200     101.99335200
C        6.76624300       6.45770900     102.54397500
C        5.11817600       9.65129600      99.48489400
C        4.46666100       8.65068000      98.42358200
C        2.90053300       8.65500400      98.44052100
C        4.78676100       9.11465900      96.95595900
O        4.34050300       8.52713000      95.98582700
O        5.70165900      10.11398400      96.86599600
C        6.36355500      10.48690200      95.70524300
C        4.97972300       7.11071300      98.74344300
C        6.37608500       6.58126500      98.24929500
C        7.37012100       7.78743900      98.28589600
C        6.82717200       5.43512900      99.19693700
O        6.03502900       4.60445700      99.55162000
O        8.09965000       5.48875100      99.53995400
C        8.76058400       4.29193000     100.12563500
C        6.33366800       5.81960000      96.90445500
C        7.52047600       5.73463900      95.90192200
C        8.02981400       7.11192300      95.41111600
C        8.65122400       4.96902900      96.59258400
O        8.53399100       3.77674900      97.01291400
O        9.82931900       5.62717500      96.59771900
C       11.04652700       5.00553800      97.08225300
C        6.95518800       4.77611600      94.80157000
C        5.93938100       5.06027600      93.65956600
C        4.55284100       4.63139000      94.04428700
C        6.35343300       4.17001400      92.43595500
O        6.23131200       2.95423500      92.46802900
O        6.82969800       4.82017200      91.43949000
C        7.17646700       4.08723300      90.31613500
C        5.84257200       6.45773500      93.18407900
H        4.15329500       7.93747200     103.31289900
H        3.59072900       9.64266200     103.57138800
H        2.49229500       8.51282700     103.48685000
H        3.30413100       7.93372600     101.10689400
H        5.42359600      10.60921100     102.65524200
H        6.71912600       5.51263000     102.06058100
H        7.76066300       6.75235500     102.56234400
H        6.45876600       6.25259600     103.58121600
H        6.21672200       9.80028000      99.26612700
H        4.72552200      10.58670800      99.18773100
H        2.46019800       8.31977300      97.47432600
H        2.43894300       9.63258800      98.65001100
H        6.22886400       9.84762100      94.79711600
H        7.45750500      10.53502800      95.77489400
H        6.04982700      11.46207000      95.47276700
H        4.23701100       6.45586100      98.23862200
H        8.31813600       7.34897800      98.01532500
H        7.51789700       8.13095500      99.28230200
H        7.17670400       8.61993100      97.61932100
H        8.23163600       3.32312800     100.01792300
H        9.03956900       4.43958800     101.18358300
H        9.77012800       4.25250500      99.67555900
H        5.43590900       6.20136700      96.35092900
H        8.58321200       7.10081800      94.51523600
H        7.19896700       7.73257600      95.13824800
H        8.72168600       7.65251400      96.01841100
H       11.87849100       5.57437600      96.67316100
H       11.19559300       4.96097400      98.17711300
H       11.14950900       4.00975000      96.71214100
H        6.73115800       3.84053800      95.27654300
H        7.83173100       4.44959400      94.31358200
H        4.41207300       3.54981600      93.96910600
H        3.81659900       4.90183800      93.25116100
H        4.23385500       5.09261700      95.02920700
H        7.59420400       3.14072200      90.60623400
H        6.80692500       6.98612900      93.09170000
C        9.07820200       8.31997300     134.92234100
C        7.74163100       7.77526900     134.25912000
C        6.51173100       7.25484400     135.06403300
C        6.96705000       6.10479100     135.89921400
C        5.99942900       8.39889200     136.01111200
O        5.87595000       9.53656800     135.66742500
O        5.96999600       7.98345900     137.25708000
C        5.89723800       8.90654000     138.33304000
C        5.38453100       6.83609400     133.99716700
C        4.15815200       5.95008300     134.24948900
C        4.63757700       4.47632700     134.34677900
C        3.54613800       6.31762700     135.63779000
O        3.30279700       5.54010700     136.51003500
O        3.09182600       7.55595600     135.61191300
C        2.27488400       8.02106600     136.69302900
C        3.10551100       6.19008800     133.16659300
C        3.31858400       6.38586900     131.69283600
C        3.88133300       7.78506700     131.44101400
C        4.29533400       5.32531300     131.13640800
O        4.09806100       4.16394000     131.27273400
O        5.36182700       5.92936800     130.62934000
C        6.52900900       5.24507300     130.23382700
C        1.93126400       6.33625100     130.91472300
C        0.68346200       5.35843600     131.05633900
C       13.46677300       5.76602400     129.85201500
C        1.11067600       3.86748500     130.98405800
O        1.02915400       3.22677500     129.91794300
O        1.33723000       3.26389100     132.23414100
C        1.80665500       1.94809600     132.26803600
C       13.53084600       5.78204700     132.37563300
C       12.11633700       5.26649300     132.77456900
C       11.96910900       5.59290300     134.27767600
C       11.03568600       6.06754900     132.08375100
O       10.03977800       5.57702500     131.63598400
O       11.17930000       7.35108000     132.13304300
C       10.27252700       8.27257100     131.52457700
C       11.84001400       3.77184200     132.51510200
H        9.66452500       7.57658300     135.45815000
H        8.85000800       9.25613600     135.45868000
H        8.17515300       7.06236000     133.50989100
H        7.43588000       8.63873100     133.62694000
H        7.24455400       5.24554700     135.28895100
H        6.19770200       5.85946300     136.67359500
H        7.95548800       6.37665400     136.36813400
H        6.97541400       9.30210600     138.54403000
H        5.76402000       8.34226700     139.19526200
H        5.16353400       9.72993200     138.09627900
H        5.92015200       6.69852300     132.98078800
H        5.55424900       4.39239200     134.86431400
H        4.84235600       3.90589200     133.44435400
H        1.22512500       8.05946700     136.43557600
H        2.36561800       7.50714500     137.60447000
H        2.44765000       7.01185100     133.52232400
H        2.47625200       5.34889200     133.19355100
H        3.66469400       8.04015800     130.41764500
H        3.38228400       8.59013300     132.04836800
H        4.96133100       7.99556400     131.60781200
H        7.01658800       4.77630300     131.10585900
H        6.35748400       4.41757000     129.48846700
H        1.41108100       7.25345000     130.86787000
H       12.47459900       5.29022300     129.89153400
H       13.28601700       6.89354400     129.77009100
H        0.28161400       5.32044800     128.89494900
H        2.72967600       1.89976000     131.75100800
H        1.04650700       1.25757700     131.80623900
H        1.97411400       1.64040200     133.33428300
H       13.64992500       6.79575800     132.42198900
H       12.73649200       5.13551900     134.89684800
H       10.96156800       5.28850000     134.71436500
H       11.97418100       6.67406100     134.38943500
H       10.61362800       9.34806800     131.73791600
H       10.25971900       8.07356700     130.46737100
H       11.80256900       3.49610600     131.45170400
H       10.85170600       3.38831500     132.92256100
H       12.63561900       3.18080100     132.90569100
C        0.66224300      10.57274700     141.68702300
C        2.01370000      10.17795300     142.22963200
C        2.65928500       8.81722000     141.69785800
C        2.72165000       8.93241700     140.15367100
C        4.10248600       8.69348200     142.33339900
O        4.19561300       9.00627900     143.50665700
O        5.08294400       8.40384100     141.45269500
C        6.40684600       8.28429700     141.94032700
C        1.74166900       7.54968100     142.00916200
C        2.30735200       6.12156900     142.32772800
C        3.24141000       5.62629700     141.24042500
C        3.10758800       5.99764500     143.65615500
O        4.24190600       5.46291600     143.67499700
O        2.43168800       6.36151500     144.71105000
C        3.06158800       6.32774300     145.97479300
C        1.13519700       5.03143700     142.47771700
C        0.22885200       4.37538600     141.34185500
C        1.09593500       3.32800900     140.67501400
C       12.59089200       3.87860900     142.10895000
O       11.85599100       4.67610000     142.76893000
O       12.24381800       2.61947900     142.01309200
C       11.14931800       2.15985900     142.72073400
C       13.28102300       5.49528500     140.41166000
C       12.21806300       5.45749000     139.26997300
C       12.70921400       4.28651500     138.30096300
C       12.40136800       6.71809600     138.43485000
O       12.32866100       6.70454600     137.20727100
O       12.63205200       7.79422200     139.17758100
C       12.66999000       9.10347300     138.55516800
C       10.78628400       5.26146700     139.93553000
C        9.50452000       5.33570600     139.13512900
C        9.35760600       6.79962800     138.52855400
C        8.23531600       5.07061900     139.99718400
O        7.15089200       5.37689200     139.55372300
O        8.49119600       4.38510000     141.09753100
C        7.53407500       3.65971100     141.73965100
C        9.44726300       4.33664600     137.96004100
H       13.49316400       9.81142500     141.81966000
H        0.79837000      10.78298200     140.63396700
H        0.32861100      11.51896000     142.11236900
H        2.70460600      10.95950400     141.96626000
H        3.02627800       9.88562200     139.69207000
H        3.41875000       8.16107900     139.79488400
H        1.77011600       8.72018100     139.63648500
H        7.11649500       7.93246100     141.26964200
H        6.51327400       7.71974300     142.91570300
H        6.77852300       9.24003400     142.14306000
H        1.18277500       7.86734900     142.91286800
H        1.04183900       7.36928600     141.22991600
H        4.04463400       6.22820700     140.98616700
H        2.87521600       5.40254200     140.24356900
H        3.72513700       5.46156700     146.14753200
H        0.50456100       5.60187400     143.14757600
H        1.78248000       2.89029800     141.40854600
H        1.64635100       3.76038700     139.91452100
H       10.23669900       2.40844100     142.17942200
H       11.25922800       2.44394200     143.78779300
H       11.29841500       1.09275000     142.73700100
H        0.59714200       5.97555400     139.87408400
H       13.00667000       6.20606300     141.13472000
H       12.46704800       3.27804900     138.75918500
H       12.23591000       4.16037700     137.30824200
H        0.16968500       4.35674700     138.10525300
H       13.41220100       9.15039400     137.76527600
H       11.74466100       9.36313700     138.01622600
H       10.66286700       6.02590800     140.70520400
H       10.81499700       4.25685800     140.44201700
H        8.32522700       7.10106300     138.39483300
H        9.74404700       6.78035400     137.43583700
H        9.93202800       7.47141700     139.08924900
H        7.25543900       2.72077300     141.13779700
H        6.67983300       4.34385800     141.85274800
H        9.99397900       4.72362400     137.07274500
H        9.94331000       3.42953100     138.31366500
H        8.35844000       4.24507000     137.72378100
C        3.08206000       4.83487600      90.07334300
C        2.26447500       4.59285200      88.68188500
C        2.71913200       5.28255500      87.40448400
C        2.80917800       6.81150000      87.72754300
C        4.12054600       4.66908700      87.18853700
O        5.20138500       5.21154000      87.47585400
O        4.09432600       3.35499100      86.78253200
C        5.28627300       2.45937800      86.64544200
C        1.69496300       5.07881900      86.25030500
C        1.99157500       5.60909100      84.77150500
C        1.29935500       7.00624700      84.70977300
C        3.48558900       5.73923600      84.42700400
O        4.15502000       4.80455200      84.01592900
O        3.94397800       7.01291200      84.50159600
C        5.46321700       7.13935500      84.54827500
C        1.26005400       4.60748100      83.83680200
C        0.94874400       4.92040200      82.29160400
C        2.17242500       5.57110400      81.64922800
C        0.54812700       3.64956600      81.49181900
O       13.30505200       2.80908500      82.03134100
O        1.31119300       3.30654900      80.44905200
C        0.88331200       2.16208300      79.73808300
C       13.26272000       5.81031100      82.09883300
C       12.89972300       6.75985400      80.88861400
C       11.62246100       7.49900700      81.32948300
C        0.41992500       7.89688000      80.83620100
O        0.62192300       8.69148600      81.75050800
O        1.06349000       7.80329500      79.64547600
C        2.07805100       8.67271300      79.36098200
C       12.67797600       6.03209600      79.45295700
C       11.91617300       6.70560200      78.28030600
C       10.37991600       6.57823300      78.44812500
C       12.18552600       5.96183900      77.00652400
O       12.36628800       4.66464900      77.04492400
O       11.99724600       6.73153300      75.90924500
C       12.10290300       6.09359300      74.68562800
C       12.27176400       8.21164800      78.00117600
H        3.10933900       5.79958700      90.51069800
H        2.59089900       4.23103500      90.78340700
H        2.21335000       3.53275300      88.54882900
H        1.19932100       4.68227400      88.71174800
H        1.81613700       7.29652100      87.98630800
H        3.48185000       6.90601200      88.55125700
H        3.22666500       7.32140800      86.92829100
H        5.33069600       1.79892200      87.59696400
H        5.08299600       1.91338300      85.71095000
H        1.62574200       3.95703900      86.06908200
H        0.72549800       5.31761300      86.55937700
H        1.39683400       7.45553400      83.75090900
H        0.26461800       7.04618100      84.98821500
H        1.75268700       7.79143400      85.33843100
H        5.71772900       8.17301900      84.86329200
H        1.77290700       3.64839400      83.88465100
H        0.34852300       4.41205000      84.37926600
H        3.08371800       5.10283800      81.85777300
H        2.48945200       6.53847000      82.09989900
H        2.06263400       5.75070400      80.61396700
H       13.52354600       1.77689900      79.90861200
H        1.49488500       1.37120800      80.05532600
H        0.95046100       2.43187600      78.69012800
H       13.17747500       6.34422800      83.02549300
H       11.81595000       7.79153100      82.38513800
H       10.81054500       6.77190900      81.46072100
H        1.68673900       9.64807000      79.76111400
H        2.13849300       8.85593700      78.33367100
H       13.65570800       5.73336700      79.03606500
H       10.19856600       5.77567100      79.14333500
H       10.01723900       7.37977900      79.00882000
H        9.91591900       6.61509800      77.43662000
H       12.00263400       6.88134300      73.91633500
H       11.31684300       5.42221500      74.59449800
H       13.09206200       5.75793600      74.61909100
H       13.33175000       8.29638000      77.61946300
H       11.60579500       8.81567000      77.35334100
H       12.23248800       8.75725800      78.90082000
C        5.11904100       8.24576000       7.15976000
C        5.77905500       7.13757800       6.37580000
C        4.82981200       5.89638900       6.14777200
C        3.45498200       6.29164600       5.51151000
C        5.51407700       4.98598500       5.12140000
O        6.47879900       4.33571700       5.44996200
O        5.18142700       5.14914000       3.87296200
C        5.95963000       4.37918900       2.90070000
C        4.61551300       5.14479000       7.53183500
C        3.67476000       3.92162400       7.73693100
C        3.68290700       2.94530700       6.51367700
C        4.19749000       3.20182200       9.00716700
O        4.65927000       2.04542800       8.99545200
O        4.13954500       3.98794000      10.09988400
C        4.43470100       3.47716300      11.39713400
C        2.23824300       4.38061000       8.10942700
C        0.95766000       3.53493900       8.29681900
C        0.40363300       3.26677700       6.92783300
C        1.32383600       2.19865600       8.98776000
O        1.42779500       2.25415600      10.22853000
O        1.07932000       1.15138300       8.22556900
C        1.48096400      13.46398300       8.64505900
C       13.56454500       4.35128400       9.25550800
C       12.57683200       5.53498100       8.78957000
C       11.84454000       5.98838500      10.12850100
C       13.38063400       6.73072500       8.24026200
O       13.44557400       6.89562400       7.00713400
O        0.44250600       7.35502200       9.24799300
C        0.74026700       8.66148700       9.00166600
C       11.54148600       4.93354300       7.81177600
C       10.11844000       5.51290900       7.55285900
C        9.70729400       4.85168200       6.23873300
C        9.18828900       5.08703500       8.67142200
O        8.48891900       5.86906300       9.30905800
O        8.99208800       3.78800600       8.67487100
C        8.04594000       3.01717400       9.34653400
C       10.01856700       7.04388400       7.31862900
H        5.78044600       9.06048300       7.30776900
H        4.28720500       8.63230100       6.69443600
H        4.91718700       7.91920200       8.19719900
H        6.01566400       7.66478000       5.40570700
H        3.57959900       6.82924900       4.59961300
H        2.86503700       6.90300800       6.17194900
H        2.75023400       5.48426800       5.23698800
H        5.81817500       3.33980200       3.16514200
H        5.58134900       4.89772200       8.05215800
H        4.25104500       5.86576500       8.26449300
H        4.61948500       2.69564100       6.09232800
H        2.99684500       2.05525000       6.65714600
H        3.33446300       3.51282100       5.71508700
H        5.24924600       2.79629200      11.18134000
H        3.58243100       2.87522100      11.66547800
H        4.67664000       4.29692700      12.07683300
H        2.36871100       4.94389000       8.98841400
H        0.24526900       4.18904000       6.31356400
H        0.91574200       2.50601500       6.25147800
H       13.03541100       2.83714400       7.06921800
H        1.43617300      12.75079000       7.86669500
H       12.43350900       6.27383600      10.99168700
H       11.28131600       6.85828900       9.79411000
H       13.45135300       9.20813000       8.71631100
H        1.48164300       8.63070000       8.31524000
H       12.01244700       4.81032000       6.85276000
H        9.87362100       3.76401200       6.19866100
H       10.11178500       5.25351200       5.31991500
H        8.63212700       4.89965100       6.11381100
H        7.34493900       2.61818600       8.58874000
H        8.45053400       2.16112900       9.85830200
H       10.85085200       7.53434700       6.75486500
H        9.13694800       7.39968800       6.88072700
H        9.87360600       7.62149800       8.22559100
C        2.17014300       1.87580600     113.43867000
C        3.43064100       2.69386000     113.75611700
C        3.74825700       3.75573700     112.68033500
C        4.98914100       4.54315100     113.10332500
C        3.96642400       3.01290400     111.31351600
O        4.98840900       2.39549200     111.00011100
O        2.89357300       3.04619300     110.48380800
C        2.84502200       2.26256200     109.32882900
C        2.59036900       4.80305200     112.53688100
C        2.59334600       6.15011900     111.68617900
C        1.16055100       6.15994500     111.09323300
C        2.74978400       7.35051900     112.62278600
O        3.39477500       7.27447200     113.61920600
O        1.94133100       8.38926500     112.32386400
C        1.77296800       9.43929200     113.31944100
C        3.66842900       6.20055700     110.53739000
C        4.25742100       7.50652400     109.98574600
C        5.06800700       8.35241100     111.05271200
C        5.20115300       6.95715800     108.94496900
O        6.20926100       6.31047000     109.23611000
O        4.75852000       7.01252300     107.69732700
C        5.73106400       6.64553700     106.68706100
C        3.12697700       8.42448500     109.28651100
C        3.28872400       9.91597400     108.67437300
C        3.21038000      10.91948100     109.80218500
C        4.68501000      10.01820900     107.96707000
O        4.86647700       9.81957300     106.71811900
O        5.58918400      10.49508600     108.88862000
C        6.89405300      10.57246400     108.35156600
C        2.03131800      10.18237500     107.75594700
C        1.56957300      11.54136000     107.06072700
C        2.74073200      12.47437200     106.71024700
C        0.64660800      12.25134500     108.03608600
O        1.01971600      13.22300000     108.65300900
O       12.98989900      11.83349800     107.94034600
C       11.96753800      12.48688600     108.70302200
C        0.75493900      11.11141300     105.81337100
H        1.78584300       1.33603100     114.34162500
H        2.21152300       1.26690300     112.57546100
H        3.23675700       3.20093900     114.63935400
H        5.01979700       4.83043300     114.04185800
H        5.87725600       4.02364600     112.90732400
H        4.90218200       5.56076500     112.65670400
H        1.84472300       2.13464300     109.06047300
H        3.05532200       1.22324800     109.56711500
H        1.72025600       4.17932000     112.24848900
H        0.76783800       6.97635100     110.41173500
H        2.63497700      10.06815700     113.19696700
H        1.81291900       9.15417600     114.30247900
H        1.02282400      10.19029300     113.14552200
H        3.26680700       5.63066100     109.63830400
H        4.51533800       5.51629400     110.77500700
H        5.84646300       9.01834500     110.73739500
H        4.44201300       9.05088200     111.65546500
H        5.62538300       7.16549400     105.76454100
H        6.69608600       7.03543300     106.98181500
H        2.31774300       8.46964300     109.99456400
H        2.57978000       7.79728000     108.65617700
H        3.90675400      10.73337000     110.53801000
H        2.18428500      10.87622700     110.27637500
H        3.55202800      11.87409500     109.39819400
H        7.50408100      11.18749600     109.03637600
H        7.18986300       9.52212000     108.37402900
H        2.32084600       9.58159400     106.95821000
H        3.48049100      12.00040600     106.09443100
H       11.89523100      13.44571800     108.25180600
H       12.36774800      12.61114100     109.71780000
H        1.40141000      10.68579700     104.95877100
H        0.43480400      12.01177800     105.35957300
C       11.63955900      13.04252600      37.38245200
C       12.92921200      12.70410300      36.54998200
C       13.42727100      11.22086300      36.72150500
C       13.66165600      10.83729000      38.16603500
C       12.35773900      10.40538600      36.04326100
O       11.78343100      10.84671400      35.05489900
O       11.98319000       9.24659100      36.67425500
C       11.07496100       8.40379400      35.89858400
C        1.25162100      11.08942400      35.92900700
C        1.85225500       9.73188400      35.26977900
C        1.78815800       8.71213000      36.31104600
C        1.08264500       9.30649600      34.07056500
O        0.54630500       8.22133500      33.97519400
O        1.00539100      10.24331400      33.13855500
C        0.25754300      10.02141600      31.91395900
C        3.35109600      10.08260700      35.00046700
C        4.41144000       9.03033900      34.63408400
C        5.71365600       9.89083200      34.37104800
C        4.86031000       8.14853600      35.82274900
O        4.44932000       7.02227600      35.97230600
O        5.64238000       8.78598800      36.70914300
C        5.99775800       8.19139700      37.89152500
C        4.02291000       8.18591200      33.39840100
C        5.12537100       7.47425300      32.45475000
C        4.38076700       6.43924200      31.54554600
C        5.58280700       8.54686900      31.40860600
O        4.89498700       8.88260000      30.47649300
O        6.76144600       9.12954700      31.74737400
C        7.36557100      10.04359800      30.94260500
C        6.16917200       6.67599300      33.31162800
C        7.56355000       6.15553400      32.71033500
C        7.50129000       5.37136900      31.44296200
C        8.72667600       7.22538500      32.76438200
O        8.83772500       7.91090000      33.80733400
O        9.62746500       7.12937800      31.74569600
C       10.75608300       7.99591500      31.76769200
C        8.03854700       5.09045200      33.81510500
H       10.81209600      12.58900000      36.90748100
H       11.36419800       0.45934500      37.33677500
H       11.79160300      12.72761700      38.42195900
H        0.12129200      13.42622000      36.78075000
H       12.73854400      12.86485300      35.49201700
H        0.89834000      10.18495300      38.34240900
H        0.30453600      11.73218700      38.76271700
H       12.74168800      10.31719900      38.55539600
H       10.16393200       8.92759200      35.67283900
H       10.84533700       7.42377500      36.39876800
H       11.39614200       8.18730800      34.86912700
H        1.15301000      11.72910200      35.03527200
H        2.00313500      11.60390100      36.54784600
H        0.74214700       8.70376000      36.63385800
H        2.42124600       8.88724700      37.19483300
H        1.94899500       7.72121800      35.97755800
H        0.59123900      10.85571400      31.28067100
H       12.78029000      10.17913200      32.01999900
H        0.51697500       9.04002800      31.42273600
H        3.74046600      10.75614900      35.73794100
H        6.00254200      10.61425700      35.10719300
H        6.54510600       9.28149500      34.36733400
H        5.69154700      10.36100800      33.51378000
H        6.60605600       7.28987000      37.66781800
H        5.15053600       8.13451200      38.58589000
H        3.39607600       8.88109800      32.83496800
H        3.37948600       7.38390200      33.62443900
H        4.22746200       5.56172600      32.19030400
H        3.31485800       6.75127400      31.40409300
H        8.37623000       9.81900200      30.74800900
H        7.29840500      10.99455600      31.40394000
H        5.79236700       5.75406400      33.71424500
H        7.17371500       5.97259200      30.65308100
H        6.78084600       4.51749900      31.57392000
H       11.44274200       7.64483200      30.98921200
H       11.31736300       7.88402800      32.66330800
H        9.08372600       4.81114100      33.64493400
H        8.00103700       5.62028000      34.80425100
C        8.45043600      12.82725700      21.80659200
C        7.74447900      12.41039200      20.45060300
C        8.59646200      11.61087100      19.40456100
C        7.81355600      11.82690200      18.07922100
C       10.04453700      12.23319800      19.26942500
O       10.46262900      12.68295800      18.18004200
O       10.69738900      12.37827000      20.46963100
C       11.92620800      13.02900200      20.28975600
C        8.56151700      10.10408500      19.91864400
C        9.07722400       8.82450600      19.07028500
C       10.48445200       9.22040700      18.49221300
C        8.23546700       8.52173800      17.83598600
O        8.71966300       7.90963800      16.85783600
O        7.04922000       9.04617400      17.97371400
C        6.01414800       8.84246100      16.92266400
C        9.31215500       7.54676300      19.90728400
C        8.32671000       6.76032400      20.80389700
C        7.25064400       6.12971200      19.87166000
C        7.64476800       7.76615400      21.75362200
O        8.22786100       8.28397100      22.65366600
O        6.30721200       7.85973300      21.61278600
C        5.57675500       8.73715500      22.49576500
C        9.06703000       5.68245800      21.69687400
C        8.50897600       4.46231900      22.43527400
C        7.15065800       4.81462800      23.24819400
C        8.09395400       3.29968500      21.50162500
O        7.37043900       2.38929100      21.90766400
O        8.60639300       3.36262500      20.28139800
C        8.42260700       2.28502000      19.34938100
C        9.56323700       3.85526600      23.51320100
C       11.04132900       3.55820600      23.18040800
C       11.82012200       4.89116000      23.27683800
C       11.69768200       2.54549800      24.20160200
O       12.37091400       1.60317900      23.79096400
O       11.28712900       2.73591400      25.42742400
C       11.77357900       1.85508500      26.49762900
C       11.21530800       2.83608600      21.77127200
H        8.96671400      12.00881600      22.17410300
H        7.75754500      13.15592200      22.56839900
H        9.04214500       0.17838400      21.69751100
H        7.32942200      13.23949400      19.93415900
H        6.84461900      11.95663300      20.85108100
H        7.96113100      12.89958700      17.79637000
H       11.75696200       0.49417600      20.24631800
H       12.59640800      12.77395400      21.08867500
H       12.52064000      12.65031100      19.48162400
H        7.54607300       9.75059500      20.22476500
H       10.31827400       9.96161100      17.83126200
H        5.02337000       9.25697700      17.11175200
H        5.96576500       7.72946400      16.78456100
H        6.39174900       9.17052400      15.89563300
H        9.72640700       6.85500600      19.16284500
H       10.20567200       7.60777700      20.55201900
H        6.46734100       5.71233100      20.48007100
H        7.73809400       5.34888100      19.25860400
H        6.88831700       6.83429200      19.17353300
H        5.89052400       8.40774400      23.46087800
H        4.46360100       8.64157400      22.30916500
H        5.83678400       9.72610300      22.36359000
H        9.46521000       6.27657700      22.50410300
H        9.85421300       5.26848000      21.08241600
H        6.90754300       4.14255000      24.04425500
H        8.62037300       2.53423700      18.35894500
H        7.32504400       2.09278100      19.44193100
H        9.02352600       1.44795200      19.63390700
H        9.09729800       2.89407700      23.77164300
H       11.68848500       5.42910500      22.31524700
H       12.83880500       4.83746400      23.56938600
H       10.97250800       1.41377500      27.15597000
H       12.40962400       2.45251700      27.16091500
H       12.14225800       2.46437700      21.47851900
C       11.33900700      13.62653400      54.95411000
C       10.09150300      12.74988200      54.62478100
C       10.23191900      11.67812100      53.42800300
C       11.30993600      10.59240200      53.85085100
C        8.87324400      10.95760300      53.46570600
O        7.82897300      11.55004400      53.59422300
O        8.87461100       9.56026900      53.54644300
C        7.63290500       8.98887000      54.01460500
C       10.56573100      12.48302200      52.14844500
C       10.30948200      11.87456000      50.73357700
C       10.84330100      10.36846500      50.63646300
C        8.83303200      11.97466800      50.34398900
O        8.16494400      13.00401500      50.62881100
O        8.30954700      10.74536200      49.99863300
C        6.86888200      10.58805100      50.06291800
C       11.10889400      12.57857700      49.56856600
C       10.92182400       0.39651300      49.06605600
C        9.67631100       0.36243100      48.02597100
C       10.64581900       1.36500300      50.26707700
O       11.51269600       1.56950000      51.18791400
O        9.53776100       2.11896100      50.10330900
C        9.20738400       3.03239300      51.09673600
C       12.23559500       1.00928400      48.45975000
C       13.20428900       0.43524100      47.30326700
C       12.45004200       0.28461800      45.94094900
C        0.74411000       1.50450400      47.30508900
O        1.41923600       1.77095300      48.25042000
O        0.70678200       2.19346700      46.14775900
C        1.75933900       2.97261000      45.66551500
C        0.23168200      12.66487500      47.66405500
C        1.55285100      12.18920700      46.94442400
C        2.86515100      12.73436000      47.57747900
C        1.63023800      12.45032900      45.42752800
O        2.42113400      13.25390200      44.93582800
O        0.74609300      11.68799500      44.72650300
C        0.79308700      11.53106700      43.34653300
C        1.62599700      10.68272100      47.10529900
H       12.06230100       0.11819300      54.07038000
H       11.05175500       1.07053300      55.28183500
H       11.84339000      13.16044400      55.76565700
H        9.23137500      13.36430300      54.36887900
H        9.73922600      12.22999700      55.51599200
H       11.28620500      10.38309000      54.89943800
H        7.76122300       7.95723800      53.89737200
H        7.61451700       9.10201700      55.02613300
H        6.73311800       9.45378700      53.54502800
H       11.58048700      12.82569900      52.31940500
H       10.13777600      13.37874600      52.20558900
H       10.37759300       9.71614500      51.32000900
H       11.85513900      10.40477700      50.75241400
H       10.58372200       9.83799500      49.73488700
H        6.51187100       9.76500500      49.43089900
H        6.46627600      10.39716600      51.08719700
H       12.14619000      12.48254100      49.90879500
H       11.17892600      11.90612300      48.70050800
H        8.69802500       0.46279700      48.47111300
H        9.64610400      13.00558000      47.52729800
H        9.41217300       2.51112900      51.98911900
H       12.89562700       1.00397700      49.32589300
H       11.98990900       2.04296400      48.14600600
H       13.13541200      13.66099500      45.07966300
H       11.72349200       1.04104600      45.76522800
H        2.35698700       3.48064600      46.43406200
H        1.35070000       3.91751900      45.16657100
H        0.42385900      12.63561600      48.78691400
H        3.02784900       0.26630200      47.45378100
H       13.39327700      11.09555300      43.01591000
H        1.57698400      10.82083600      43.01253200
H        0.94792100      12.51956500      42.85736500
H        2.40042400      10.23087100      46.44114500
H        0.69961300      10.18637300      46.76922400
H        1.78815100      10.38555900      48.15685100
C       11.96071700      13.25847100      15.00697700
C       12.57265600      11.85688300      14.83051400
C       12.87027400      11.41692700      13.37372400
C       11.72256700      11.80830500      12.40294400
C        0.39550900      12.17302800      12.75903800
O        0.71266600      11.98746700      11.57667600
O        1.13810200      12.87234700      13.56665000
C        2.25899200      13.60254800      13.06949300
C       13.09113700       9.82071100      13.25373200
C        0.56711500       9.10962600      14.20110900
C        1.92739300       9.86743000      14.15440800
C       13.55422100       9.13782200      15.57726300
O       12.52406100       8.52043600      15.88752400
O        0.71294600       9.80049600      16.51503300
C        0.33647100       9.57551600      17.88089900
C        0.59388200       7.56294700      13.81721500
C        1.71118200       6.47017200      14.32178600
C        1.26680200       5.15584100      13.84290100
C        3.03388800       6.81842000      13.62705600
O        3.94798500       7.40528400      14.20455500
O        3.04716500       6.48132200      12.31544100
C        4.10583200       7.01556600      11.45211400
C        1.75735800       6.41552000      15.92177700
C        2.68872500       5.33663700      16.69722500
C        4.15073900       5.15861600      16.26594400
C        2.65866800       5.93954500      18.11407400
O        1.63825600       6.06826900      18.72108300
O        3.75292000       6.49745100      18.43804300
C        3.76294100       7.03861600      19.74304800
C        2.02980600       3.90879500      16.73106400
C        2.21378800       2.80520900      17.85450000
C        1.56630200       1.48870300      17.33561300
C        1.49089800       3.19046200      19.15558500
O        0.30271500       3.02684700      19.28257000
O        2.32113800       3.66956100      20.14329800
C        1.73737200       4.31953300      21.21946700
C        3.71152400       2.37554400      17.97301900
H       10.86310000      13.20396800      14.66768600
H       12.36762500       0.50289000      14.37546700
H       11.86514600      13.46230500      16.05702300
H       11.93840300      11.20182900      15.34318600
H       11.95688600      11.52860900      11.37616600
H        2.34197700       0.91839900      13.71105200
H        3.21323300      13.11322600      13.11880100
H        2.16634400       0.42997300      12.10959800
H       13.34102900       9.68594200      12.18244100
H       12.04758100       9.36152200      13.39325500
H        2.00352100      10.89159800      14.50865000
H        2.62429200       9.39881500      14.81358600
H       13.09048900      10.16193500      18.18645200
H       13.63951400       8.59286600      18.17071900
H        1.13262700       9.90677500      18.63097900
H        0.67846500       7.53961900      12.69123200
H       13.21283300       7.11228700      13.95054500
H        1.15485500       5.15466900      12.71429900
H        1.98910000       4.38828600      13.99476700
H        5.05211700       6.91317600      12.04270500
H        3.85315000       8.06299400      11.44873800
H        4.20098100       6.61063500      10.49119200
H        0.68843300       6.18745400      16.15416800
H        4.81245500       4.58973200      16.94452300
H        4.33849100       4.67425700      15.27178400
H        4.59994000       7.73303000      19.81144100
H        2.83967500       7.52204100      20.09416800
H        2.43053900       3.45312900      15.82981300
H        0.93198400       4.07781100      16.64230400
H        1.24455300       0.79909400      18.11564500
H        2.09349500       0.98687700      16.54057800
H        2.44908300       4.66422200      21.94076500
H        1.22293600       5.23258000      20.84830500
H        4.29112100       3.13661900      18.51948200
H        4.27971800       2.10319900      17.06866300
H        3.73737700       1.43249400      18.54837100
C        6.20786200      11.78295100     132.45185400
C        5.39144200      12.89418100     131.64091300
C        5.96232000      13.42135400     130.25954100
C        4.81376500       0.70274700     129.58158200
C        7.27002900       0.61621100     130.47337500
O        8.23192500       0.22272300     131.20216500
O        7.32735700       1.69650200     129.63922100
C        8.60200100       2.21092800     129.32684700
C        6.33202300      12.28072700     129.24371800
C        5.26001800      11.32431200     128.50511900
C        4.14015000      10.91964000     129.45241500
C        4.64310800      12.01546400     127.22527200
O        5.00638200      13.09263200     126.65211100
O        3.83017000      11.12368100     126.66322300
C        3.46344200      11.32770400     125.35383900
C        5.96343600       9.89150100     128.06389600
C        7.22791000       9.86770500     127.09667900
C        7.10519100      10.92367200     125.96953800
C        8.41451600      10.22772600     127.94644100
O        8.61733500       9.60319100     128.90643100
O        9.20570300      11.28469600     127.50666300
C       10.34977900      11.63307800     128.28015000
C        7.60829600       8.47846600     126.53548300
C        6.85071400       7.51103200     125.54422200
C        7.76384100       6.17356700     125.49807700
C        5.57935400       7.03312400     126.12351900
O        4.52897700       7.63898800     125.84578300
O        5.56695200       6.13037500     127.05619200
C        4.29507200       5.77051800     127.59979100
C        6.69739300       8.18940300     124.14549700
C        6.27407800       7.39650300     122.83363900
C        7.52835700       6.67954700     122.19873100
C        5.68200300       8.38770700     121.69380000
O        5.13687800       9.44735200     121.96206900
O        5.87395200       7.99541300     120.46469500
C        5.40994600       8.80385700     119.39170900
C        5.06621100       6.44833300     123.03640700
H        5.59807300      11.16920700     133.23422500
H        7.09001800      12.13255900     132.92758700
H        6.39892000      11.03319700     131.77238000
H        4.34342000      12.59541100     131.55299600
H        3.88030400       0.18079300     129.48117200
H        4.54726400       1.63618700     130.22895800
H        9.12797200       2.64267500     130.19631200
H        8.67211600       3.12013800     128.76807700
H        9.15814300       1.37176600     129.02926600
H        6.87813600      11.48442800     129.72767700
H        3.47413600      11.63311700     129.81391700
H        4.49494100      10.32374800     130.27817700
H        3.56455400      10.21277800     128.88524900
H        2.74613500      12.21266000     125.54922000
H        5.16366700       9.28851600     127.56104400
H        6.14365700       9.25818800     128.94270400
H        7.28271100      11.93974500     126.22424900
H        6.16253300      10.81014800     125.48460800
H       11.12316900      10.95673900     128.36716900
H       10.87284400      12.44253400     127.82735900
H        8.59578400       8.54327300     126.13246900
H        7.76279700       7.90358800     127.40770400
H        8.01566700       5.91722900     126.56583200
H        7.41347500       5.24521700     125.11083100
H        3.78340500       6.60594000     128.05169200
H        5.89669200       8.88735900     124.27927300
H        7.65660200       8.72096400     123.91125600
H        7.25487600       6.02673700     121.39888000
H        8.16864300       7.40856900     121.74394500
H        8.04129000       5.99706000     122.89906700
H        5.82380100       8.47156000     118.43907900
H        4.37970500       8.84346100     119.54756400
H        5.63548300       9.89899100     119.49395100
H        5.35561700       5.53713500     123.59509300
H        4.29847500       7.10387100     123.53814600
C        0.70476400       5.07912700      26.54371700
C        1.72857500       4.50566500      25.54125900
C        3.21117900       4.15457500      26.04842600
C        3.80158400       3.49001800      24.84731700
C        3.95955400       5.51659000      26.24280200
O        4.70344600       5.93598900      25.35922200
O        3.58733500       6.20481800      27.33679000
C        4.46657400       7.27804100      27.77773600
C        3.23074100       3.38941700      27.44333400
C        4.56066700       2.69243900      27.95086800
C        4.66940500       1.38535100      27.29812700
C        5.85172000       3.55143300      27.70540900
O        6.06345700       4.67295800      28.21723700
O        6.73338900       2.89390700      26.92129600
C        8.05324900       3.34895900      26.97540700
C        4.47082200       2.53353500      29.52851600
C        5.50006300       1.54741800      30.32774900
C        6.97534300       1.74317800      30.07701300
C        5.09378300      13.61253800      30.10836400
O        5.93072300      12.77384600      29.75407900
O        3.77521800      13.28029700      30.44958300
C        3.20387500      11.92795400      30.27405700
C        5.22219400       1.81917000      31.85108000
C        5.56205600       0.91404000      33.12949700
C        4.76991200      13.28022100      33.25645300
C        7.11864300       0.72315900      33.09557800
O        7.88462400       1.61404400      33.01097400
O        7.43758900      12.98309200      33.39132200
C        8.79690000      12.52690600      33.36479600
C        5.31474400       1.83709800      34.40525100
C        5.31965500       1.26062300      35.86727000
C        6.46744800       0.23531900      36.12454100
C        3.92902200       0.74404800      36.38417800
O        2.89688400       0.79814100      35.71159500
O        4.02233000       0.27210000      37.67807100
C        2.79437500       0.22530200      38.39403100
C        5.76300300       2.51756400      36.77648900
H       13.41022200       5.63055300      26.03835100
H        1.19633500       5.90713300      27.18795200
H        0.39638000       4.38057900      27.33477100
H        1.34935600       3.62343000      25.12034600
H        1.66826400       5.18241800      24.62430000
H        4.84970700       3.43384000      24.94537200
H        3.79497800       4.08091300      23.87844800
H        3.35109600       2.54052200      24.55920900
H        5.34074700       6.90564900      28.09854200
H        4.69316200       7.97030600      26.94766600
H        3.99757600       7.81670200      28.56830100
H        3.03653500       4.14294700      28.21659100
H        3.90047200       0.65472500      27.56101000
H        5.68902000       0.82675400      27.53560300
H        8.33744200       3.70845400      28.00341100
H        8.80888700       2.57032300      26.62914400
H        8.19984700       4.15974000      26.24449700
H        4.56259200       3.53588300      30.00363300
H        7.68234100       1.00907800      30.43249300
H        7.06078500       1.69993700      28.99727400
H        7.34994100       2.72206200      30.26554500
H        3.04937900      11.67782800      29.20798200
H        3.91452000      11.13166000      30.65264700
H        2.26307800      11.69870600      30.67027000
H        5.48310500       2.81804200      32.13704400
H        4.83409800      12.79991300      34.19829300
H        8.90753100      11.88652700      34.20881100
H        9.47220500      13.39870500      33.33754100
H        6.00984500       2.64898600      34.27935900
H        7.41566000       0.57538100      35.77262300
H        6.18974400      12.83415600      35.83128600
H        2.07674600       1.01847800      38.12332900
H        2.34106900      12.86646500      38.17457000
H        2.87327600      13.67479700      39.43903800
H        5.90277500       2.31967900      37.80567300
H        6.73309700       2.94441300      36.53762900
H        4.98361200       3.29808900      36.69791100
C       10.00328800      10.80377500     100.94650100
C       10.08562100       9.67705500      99.89652400
C       11.58077600       9.16740600      99.67311000
C       11.56610500       7.93644900      98.58220600
C       12.48827100      10.24524300      99.06952000
O       12.84938400      11.18946700      99.69113800
O       12.36048300      10.20213900      97.76549000
C       12.95684500      11.28634200      96.99503500
C       12.34847000       8.87024700     100.99977100
C       12.17162800       7.53863200     101.84425000
C       10.66663400       7.21845400     101.94330600
C       12.82973100       6.36887800     101.14481500
O        0.41880700       6.48094600     100.74596500
O       12.11485600       5.24915000     100.96249000
C       12.68476100       4.05970700     100.45894700
C       12.82061200       7.64924400     103.29066500
C       12.78106300       6.60944100     104.43781300
C       12.66075100       5.14754100     104.01581300
C        0.58756400       6.76362700     105.14879500
O        0.83273300       7.83672700     105.80659700
O        1.40421600       5.73066900     105.07559500
C        2.69145200       5.90227200     105.71139300
C       11.66974400       7.04826300     105.46307900
C       11.21880500       6.07411000     106.61936400
C       10.15521900       5.07302500     106.06255200
C       12.43097500       5.36779900     107.29511500
O       13.27474100       6.08127400     107.87714100
O       12.38230900       4.01169100     107.35977200
C       13.46002600       3.37703100     108.02275300
C       10.28168600       6.63271000     107.80959700
C       10.31980300       8.11772900     108.32826600
C       11.73191700       8.64009600     108.79623800
C        9.71974400       9.04816200     107.24592000
O        9.70444300      10.24278600     107.46223000
O        9.09896400       8.49380900     106.26657300
C        8.32779600       9.19144100     105.32712500
C        9.44069700       8.22762800     109.58649900
H       10.93523400      11.26003900     101.19320600
H        9.81207700      10.09805400      98.92621500
H        9.35219100       8.88415400      99.97650800
H       10.84919500       8.06010400      97.78337300
H       12.59556600       7.76368800      98.22226400
H       11.33891800       6.95806200      99.10503200
H       13.25147600      10.94468800      95.90402100
H       12.34385100      12.14833300      96.91183100
H        0.24467400      11.63554400      97.50455600
H       12.16308400       9.74664400     101.61038900
H       13.44504300       8.82433300     100.76595000
H       10.47300400       6.37302900     102.60948500
H       10.10295500       8.06687500     102.32385800
H       10.30200900       6.98392600     100.88154000
H       11.96100200       3.24736500     100.55396400
H       13.14241500       4.04550300      99.48247000
H       13.51358200       3.77034600     100.98733400
H       12.49507900       8.61598800     103.60557000
H        0.31996000       7.74466800     102.98584800
H       11.67297900       4.95409000     103.48305600
H       13.38990200       4.70676800     103.31171700
H       12.87630200       4.39603900     104.84522100
H        3.28118200       4.92823400     105.85920900
H        3.22418500       6.56566600     105.05496400
H       10.79780800       7.44529200     105.05353400
H       12.08754800       8.00716400     105.90221200
H        9.22946200       5.47285700     105.71843400
H       10.61136400       4.43155700     105.31947700
H        9.95072700       4.28103700     106.86661100
H        0.80615800       3.46356100     107.44127200
H       13.49919000       3.62503900     109.08860800
H        9.24424800       6.38513800     107.56408600
H       10.49837400       6.08263000     108.75651600
H       11.71793300       9.61871600     109.28183700
H       12.32627500       7.91492400     109.41993900
H       12.28294800       8.82711600     107.92112200
H        8.10675500      10.21223300     105.59530200
H        8.89707000       9.09466100     104.44640900
H        7.43685900       8.63554500     105.11230200
H        9.85154100       7.53192600     110.31914900
H        8.37521500       7.95490600     109.39200400
C        8.72662900       1.70074400     152.20527900
C        7.27612300       1.55349800     152.81893000
C        6.71601200      13.67404700     152.89072800
C        6.89661200      13.06541600     151.46035800
C        7.64475400      12.76055700     153.82275100
O        8.05266600      13.17939200     154.88262600
O        7.40054100      11.44747400     153.45554200
C        7.92029500      10.38827500     154.25387600
C        5.24044000      13.58366400     153.47581900
C        4.00497900       0.87110400     153.03030100
C        2.84253100      13.60344400     153.61959500
C        4.19535100       2.22048400     153.72631100
O        3.98331700       2.33294700     154.92298600
O        4.38594900       3.16762100     152.91967100
C        4.35581900       4.51927600     153.35602400
C        3.99949000       0.88965200     151.45251600
C        2.69449600       1.05682700     150.60181800
C        1.68157100      13.50589700     150.75340900
C        1.98501400       2.40657800     151.04544100
O        2.41611900       3.46430900     150.66623900
O        0.86668900       2.29154800     151.80296800
C        0.24134000       3.47031900     152.31527700
C        3.06391800       1.22176900     149.12501000
C        2.08064200       1.05349800     147.90975800
C        1.68478000      13.19706700     147.66839900
C        0.88723300       1.95091700     148.16896700
O        0.98695200       3.19492200     147.96888500
O       13.28891900       1.34923000     148.39373700
C       12.14520900       2.02750900     148.79809400
C        2.95592000       1.54378500     146.66343100
C        2.51664900       1.36776200     145.10127200
C        3.50426800       2.24302900     144.27247100
C        2.84189600      13.49903600     144.68209700
O        2.16068200      12.92443400     143.84160100
O        3.89526700      12.99782700     145.30466000
C        4.44421400      11.73635800     144.94038400
C        1.01507800       1.55810300     144.82682800
H        9.01748900       2.73522200     152.23347500
H        8.69306800       1.33152300     151.23340000
H        9.56959300       1.15876100     152.68692500
H        7.17868800       2.02015700     153.79657800
H        6.67862100       2.26538400     152.27209700
H        7.96672600      12.79037400     151.41661700
H        6.40163600      12.12523200     151.21368900
H        7.45159300      10.39457300     155.21780900
H        9.00997800      10.43234000     154.36505000
H        7.49327600       9.43818400     153.88064100
H        5.01650900      12.51146500     153.41635100
H        5.30893000       0.19300900     154.54979100
H        2.99197200      13.55662600     154.69896100
H        2.89588300      12.54326200     153.28035700
H        3.37697800       4.97190700     153.23918600
H        5.05083600       5.15658400     152.75934800
H        4.69939200       4.67532400     154.40433900
H        4.49734800      13.59727200     151.11094000
H        0.76688700       0.22636900     150.19051900
H        2.09506000      12.53190600     150.52444300
H        1.15646000      13.45312600     151.70168200
H       13.41496800       2.99273400     153.18058300
H       13.11021600       4.02796300     151.71341200
H        3.86871800       0.56839200     148.88093900
H        3.58202400       2.19020300     149.03370800
H        0.92522700      12.74305000     148.42865400
H        2.60564500      12.66374800     147.51252800
H        1.10313100      13.05515500     146.70317900
H       12.36412200       2.80204100     149.53630800
H        4.00757300       1.20755500     146.78102200
H        3.13645000       2.65321800     146.86802300
H        3.39796800       2.02344100     143.17016600
H        4.48336500       1.88668600     144.58579700
H        3.63622300      10.98443000     144.79289700
H        5.18935100      11.57780700     145.64820900
H        5.04624900      11.77088200     144.05850600
H        0.39535700       0.85640300     145.43606200
H        0.78518300       2.52188100     145.23197900
H        0.64698000       1.50873600     143.80331700
C        0.20838700       2.56113100      74.48246800
C        1.69654000       2.88290900      74.76179000
C        2.64601900       2.67073000      73.55055100
C        2.31240400       1.31783300      72.93549000
C        2.43328600       3.72621900      72.43475000
O        3.19462200       3.80737000      71.45276900
O        1.45631600       4.54701100      72.75273800
C        1.12479500       5.53116000      71.79518100
C        4.17836200       2.56261700      73.88891300
C        4.86624800       3.67978800      74.83129400
C        4.82542600       5.12255600      74.23104200
C        4.20030100       3.66694000      76.19714600
O        4.05913500       2.60953700      76.74982000
O        4.11575200       4.82737600      76.77033900
C        3.39522600       4.96802900      78.02368300
C        6.31739700       3.22023600      75.21890700
C        7.68974400       3.53519800      74.47057500
C        8.09229300       5.04309400      74.69918800
C        8.65339000       2.54958700      75.15055100
O        8.81416900       1.39293300      74.75036100
O        9.28467800       3.05371700      76.20007800
C       10.29722400       2.27636900      76.87449300
C        7.60070600       3.21196700      72.88603900
C        8.77611700       3.68572000      71.95989700
C       10.18685100       3.27777600      72.55319900
C        8.62424300       5.22050300      71.70052200
O        7.58981400       5.84887600      71.50664600
O        9.82747700       5.78315800      71.72607500
C        9.82693800       7.08704900      71.09478600
C        8.54370600       2.86064400      70.62635000
C        9.49840900       2.82837700      69.39780700
C       10.56433000       1.71744600      69.51603300
C       10.26853500       4.14878600      69.07329800
O        9.69824200       5.06296600      68.44404800
O       11.47639300       4.17278100      69.55993300
C       12.44290100       5.13964600      69.06225400
C        8.84315700       2.45619100      67.99938800
H       13.14790800       2.75759400      75.32366400
H        0.16315900       1.51553200      74.20052800
H        1.90388500       2.22972000      75.57957500
H        1.77854300       3.89509900      75.13035400
H        2.41798700       0.53399600      73.61041000
H        1.36035200       1.40053300      72.39965800
H        2.90037100       1.12796000      72.03269700
H        0.10000000       5.85306500      72.16183200
H        1.60380600       6.56682100      71.98957800
H        1.03811000       5.25316000      70.77752300
H        4.67786300       2.49833100      72.94276100
H        5.41713500       5.85819500      74.80946100
H        3.85260900       5.59104000      74.10569200
H        5.26527900       5.12360000      73.22847200
H        2.32417500       5.01354900      77.98062400
H        3.71815200       5.83422800      78.61160300
H        3.61791900       4.05313500      78.48139800
H        6.45338700       3.62212200      76.23966900
H        8.15255500       5.36620700      75.73912800
H        9.13730100       5.01763300      74.39333500
H        7.57851900       5.87427400      74.11153600
H       11.20837300       2.11586100      76.33060900
H        9.99984800       1.22463300      77.04690500
H       10.56024700       2.70562400      77.79117300
H        7.50946800       2.14299400      72.78140900
H       10.99895400       3.64533300      71.89760600
H       10.49253700       3.69142700      73.52238400
H       10.23218200       2.19246400      72.63712500
H        8.93505200       7.66454000      71.18330100
H        9.93589900       6.92384200      70.05416100
H       10.72275600       7.59126700      71.50226000
H        8.33463300       1.78156300      70.82208500
H        7.61140600       3.28211200      70.22592200
H       11.21508600       2.01319100      70.38610800
H       10.03432300       0.79304400      69.64675900
H       11.26620900       1.59040000      68.69569200
H       12.26707100       5.33637500      68.08010300
H       13.35496500       4.59621300      69.04901200
H       12.66547600       5.92561200      69.70871900
H        9.51748200       2.56469700      67.17302700
H        8.46781900       1.46888200      67.95093600
C        4.63242700       0.92226500      22.44075000
C        3.69408200      13.49827900      23.12065400
C        2.33193200      13.23142500      22.50534300
C        1.63804300       0.91658100      21.99459100
C        2.42083200      12.29873100      21.24643000
O        1.37691900      11.99555400      20.65927200
O        3.58266000      12.06843100      20.87256300
C        3.77816100      11.27889300      19.68866300
C        1.36393600      12.46295000      23.53868400
C        1.82065100      11.24787300      24.42646900
C        2.40029300      10.13731200      23.55152700
C        2.79079800      11.69633100      25.54579700
O        2.68522100      12.80286600      26.08090600
O        3.93748100      11.10317200      25.46487400
C        5.03491500      11.29605400      26.37973800
C        0.39736500      10.79665600      25.03783300
C        0.25631900       9.96181900      26.35469500
C        1.14248900       8.72667500      26.44356800
C        0.45907100      10.84353200      27.60270500
O        0.85089800      10.35094100      28.65730100
O        0.31345800      12.16452200      27.42905800
C        0.24158000      13.04844400      28.54347200
C       12.43601700       9.15849700      26.39070700
C       11.05519700       9.94733200      26.67471100
C       10.92451800      10.23795800      28.20069500
C       11.09830100      11.23700900      25.91093800
O       10.85985400      12.32386000      26.43062900
O       11.01044100      10.96764900      24.52243500
C       11.01321300      12.07310200      23.62142000
C        9.74353400       9.17862000      26.20127200
C        9.23134300       7.80554600      26.91398800
C        8.15184100       8.01345800      28.03153000
C       10.33209700       6.79433000      27.19605300
O       11.12711000       6.47180700      26.31059600
O       10.22849900       6.17631200      28.45927300
C       10.95177200       5.02898500      28.83758000
C        8.43362800       7.09672700      25.77047300
H        5.16635400       0.64791900      21.49601400
H        5.39319100       1.06140100      23.19182500
H        4.22998800       1.96386800      22.39669600
H        4.11510200      12.55774600      23.29281000
H        3.50030600       0.34560900      24.09090100
H        0.97875700       0.68658700      21.23146200
H        2.34745300       1.61459200      21.53494100
H        1.21309400       1.42917200      22.78820000
H        3.74918600      11.89938300      18.75778500
H        2.98662800      10.65618200      19.39135600
H        4.67477900      10.62620000      19.63186200
H        1.09555200      13.23839200      24.27045000
H        1.84453400       9.95434900      22.71971200
H        3.38972000      10.41158100      23.31577700
H        2.48580800       9.25963900      24.18559100
H        4.58824600      11.24547000      27.41627300
H        5.47307500      12.35197300      26.36017600
H        5.75599400      10.48145200      26.31581300
H       13.34241300      10.28108600      24.27645400
H       13.48069900      11.68898800      25.26001700
H        1.06399200       8.27706500      27.45137200
H        2.14271900       9.03362700      26.31872600
H        1.03345600       8.02823400      25.66265200
H       13.03712600      12.55000300      29.12915200
H       13.51424100       0.50933800      28.26878800
H       12.49842000       8.35810500      27.12780200
H       12.33607600       8.78490000      25.42519700
H       10.97360000       9.19127300      28.68179800
H        9.92082200      10.58390900      28.43471000
H       11.62261000      10.93380000      28.70823100
H       10.11855600      12.65815700      23.71311100
H       11.04395500      11.69421600      22.58903800
H       11.94745200      12.60348000      23.83138000
H        9.89981200       9.02207800      25.11985200
H        8.94381600       9.88114200      26.37161300
H        7.22452300       8.63638000      27.82657200
H        7.54567500       7.10859200      28.15782500
H        8.69402300       8.33981000      28.94178600
H       10.72397000       4.11875000      28.27463600
H       12.01311900       5.00569300      28.64815300
H        8.54929300       6.05054300      25.97026600
H        7.44449600       7.53413800      25.68872700
C       12.34398200      10.28649600     115.85505600
C       12.29824100      10.31398000     117.42721600
C       12.93337800       9.06167000     118.08119200
C       12.07020500       7.77591400     117.56342500
C        0.81389400       8.88551700     117.71998300
O        1.66168300       9.76330000     118.08432700
O        1.02090100       7.76590900     117.01261100
C        2.38966000       7.37749700     116.79410500
C       12.95574900       9.21835800     119.59323000
C       13.09819800       8.05783500     120.64451500
C        0.91488300       7.38049500     120.50376700
C       11.91949900       7.21751300     120.42753900
O       10.80299800       7.63745800     120.46131900
O       12.22570900       5.98370100     120.37576900
C       11.16521300       5.04931100     120.60696300
C       12.94796000       8.73417100     122.03143100
C       13.26026800       8.06687400     123.39951400
C        1.24773600       8.05052100     123.56595500
C       12.69003700       9.06624800     124.42685400
O       11.58647400       8.96990900     124.80136800
O       13.50909700      10.23113200     124.69652500
C       13.00987600      11.36539300     125.34227100
C       12.59781300       6.60146000     123.57059500
C       12.74057600       5.63274500     124.84078900
C        0.61099400       5.14730100     125.06287200
C       12.32213100       6.46744200     126.06970000
O       13.08227400       7.16625300     126.70001600
O       10.99725600       6.27967200     126.50192400
C       10.49200400       6.97326300     127.68996000
C       11.74211100       4.39282100     124.79755100
C       11.88803500       3.16275500     125.76141000
C       10.76214000       2.11237600     125.42726800
C       13.16100400       2.29348400     125.57154000
O       13.41222000       1.74214200     124.44767100
O        0.38121200       2.30857300     126.70972700
C        1.77177600       1.98192200     126.54428400
C       11.72353400       3.52729100     127.26720700
H       11.78190200      11.08191000     115.34980500
H       11.83508000       9.42131800     115.44131300
H       12.79957900      11.26666900     117.70767100
H       11.27067200      10.48284400     117.80186700
H       12.09891400       7.66139500     116.50539900
H       11.05561400       7.81220700     117.92193200
H        3.01350100       7.23404800     117.62725600
H        2.44801500       6.39106000     116.23946700
H       12.01469500       9.62895900     119.84069600
H       13.60075100      10.01572400     119.77803100
H        1.01042500       6.82822200     119.54114900
H        1.05131700       6.58900200     121.19785200
H        1.74430100       8.05865900     120.71539600
H       11.71043900       4.12412600     120.68971700
H       11.95361200       9.23055000     122.00220200
H       13.58230900       9.59184000     122.05099200
H        1.71555900       7.12596100     123.13940000
H        1.44298500       7.98940000     124.66535100
H        0.11391800      12.19729500     125.22076400
H       12.02240700      11.73733800     125.18424600
H       13.03424300      11.03236800     126.37152200
H       11.52655900       6.69726900     123.47197600
H       13.00473200       5.97444300     122.78763100
H        0.55608200       4.53071900     125.88742700
H        1.13176700       4.60440300     124.27155500
H       10.39825800       8.01721700     127.53919400
H        9.59349400       6.53956600     128.11835300
H       11.19485200       6.80905200     128.43335000
H       11.72846600       4.08123700     123.76222200
H       10.77134000       4.81512800     124.88279400
H       10.83568000       1.28569800     126.03686400
H        9.72525700       2.43807900     125.56905100
H       10.85691200       1.78501000     124.35929500
H        2.14950700       1.72797900     127.49697800
H        2.44697200       2.81405400     126.34676800
H       10.77473700       3.92727800     127.61187200
H       11.95166900       2.71375500     127.89110700
H       12.49675900       4.26378700     127.44999000
C       12.87916100       3.24771700     117.03796500
C        0.53255400       4.03062100     117.48715200
C        1.50353400       3.22509500     118.53327200
C        0.63477400       3.19378800     119.80372100
C        1.81893600       1.82256000     118.06318300
O        2.52655900       1.61467200     117.09566800
O        1.09852900       0.87779800     118.68544000
C        1.49982600      13.14383000     118.61419800
C        2.83723400       4.08265800     118.64385000
C        4.13584300       3.64455400     119.42700600
C        4.95731700       4.91929200     119.41940300
C        3.61693200       3.36518300     120.87280500
O        3.45671200       4.25473000     121.69687900
O        3.31263000       2.08544300     121.08219400
C        3.00960500       1.69377400     122.39684800
C        5.00857600       2.46380000     118.82337300
C        6.47335700       2.02541900     119.06784200
C        6.70486400       0.57022700     118.48282600
C        7.44159000       3.05080200     118.39295500
O        8.26836800       3.70844600     118.99963200
O        7.18258500       3.27569800     117.04815100
C        8.16680600       3.83159200     116.29721800
C        6.66577000       1.93812500     120.60594600
C        7.88804600       1.25475600     121.45575900
C        9.26780400       1.59361100     120.85067100
C        7.79123600       2.01286300     122.77975000
O        8.50196800       3.01425300     123.00417500
O        6.80143700       1.54917600     123.64111400
C        6.50908000       2.22695000     124.85248700
C        7.59636900      13.32672000     121.60671500
C        8.73322300      12.40906300     122.17804100
C        9.18181700      12.70795300     123.60880500
C        9.91806900      12.22247500     121.15650500
O        9.86225100      11.99317000     119.93852700
O       11.06522900      12.58227400     121.74504800
C       12.36751900      12.73883400     121.10567600
C        8.17837500      10.95148200     122.32520200
H       12.26997000       3.80242600     116.39605300
H       12.99895000       2.28743600     116.58729300
H        0.13270800       4.96849400     117.91841000
H        1.01575600       2.46210100     120.43753900
H        0.61093800       4.15999900     120.35036600
H        1.91820200      12.82776800     117.63540500
H        2.17724300      12.97743600     119.43584500
H        0.70190200      12.37967100     118.70424000
H        3.15458900       4.39407700     117.62919100
H        2.47690200       5.02002400     119.07042200
H        5.40648200       5.23930500     118.38622500
H        5.78382300       4.81264100     120.12241700
H        4.44382800       5.81984700     119.71349100
H        2.19727100       2.36164600     122.75744100
H        2.60833900       0.65494100     122.26924900
H        3.79963600       1.70605300     123.13242400
H        4.39591000       1.52079100     118.97666700
H        5.00265700       2.64004800     117.73483000
H        6.12597200      13.37635600     118.92673000
H        7.72853400       0.30120100     118.58448800
H        8.80313700       3.14287700     115.64827700
H        7.68942100       4.56856400     115.59506300
H        6.59778300       2.89605700     120.90992100
H        5.74601300       1.50453300     121.01035900
H        9.46396100       2.65851300     120.58924800
H       10.16802600       1.27314600     121.39453600
H        9.47858300       1.22139400     119.86300600
H        5.64308700       2.97810900     124.74941500
H        6.08514800       1.44909200     125.49424100
H        7.37520500       2.59710900     125.35377300
H        9.83038100      13.59247200     123.63112600
H        8.33090500      12.85984400     124.23131700
H        9.70997200      11.99419300     124.15529300
H       12.97863500      13.55436500     121.51924100
H       12.86534600      11.90234100     121.38024300
H       12.32796700      12.78493100     120.01773900
H        7.32467400      10.99016300     123.02529600
H        8.85408800      10.19779800     122.67032900
H        7.81762300      10.50496600     121.39500000
C       11.66224800       5.15380400     113.56075900
C       11.78329700       4.44702900     112.26287900
C       11.24704000       2.96285500     112.14989400
C       11.88761300       2.30085100     110.94202500
C        9.75161400       3.13677700     111.98729800
O        9.07569700       3.32642200     112.96672000
O        9.32331900       3.36941600     110.81818100
C        7.94903100       3.72484800     110.62136500
C       11.64127800       2.12379900     113.42163300
C       11.24624600       0.59111200     113.65201100
C       12.34539800      13.31003100     112.99092600
C       11.32149500       0.31125500     115.13391000
O       12.37000300      13.54008400     115.61982300
O       10.29995900       0.71054600     115.84608000
C       10.27571200       0.51139100     117.26599500
C        9.80858200       0.25784300     113.13501800
C        9.04661300      12.46499100     113.11186700
C        7.70784300      12.73918200     112.37818100
C        9.85015900      11.49885800     112.14121900
O        9.94706900      11.82834500     110.98773500
O       10.59396400      10.51784300     112.77606400
C       11.67735200       9.82999600     112.11807700
C        8.79845800      11.86240100     114.60729900
C        7.86858800      10.71413700     115.05670000
C        8.00003500      10.59289900     116.64869800
C        6.41051100      11.12905500     114.80998600
O        5.77252900      10.76343700     113.91286100
O        5.79567600      11.84266200     115.80893400
C        4.46897300      12.15352100     115.64492000
C        8.29911200       9.45421000     114.21005200
C        7.77556500       7.98581300     114.56742900
C        6.22805100       8.01892600     114.82581100
C        8.52161100       7.44383100     115.84713700
O        9.69958400       7.14914200     115.75616500
O        7.76928100       7.31382200     117.04354200
C        8.35800300       7.02014400     118.26779600
C        8.05512400       7.03538100     113.36245300
H       12.52253400       4.87536800     114.23005800
H       10.67527800       4.93768100     114.10816500
H       11.80818000       6.21123600     113.40790100
H       12.86936900       4.56445400     111.99737200
H       11.23358200       5.12898000     111.56919100
H       12.97778300       2.18697200     110.99427100
H        7.80988900       3.81788400     109.53717800
H        7.54487500       2.85773200     111.14608000
H        7.87566900       4.66258500     111.10795000
H       11.42368500       2.65103900     114.30770000
H       12.75195600       2.21346400     113.51460000
H       13.32645800      13.65243400     113.09273300
H       12.14717200      13.24177500     111.91498800
H        9.51999600       1.21371100     117.66187900
H        9.64660500       0.62613500     112.08176000
H        9.02927700       0.91078900     113.62170700
H        7.76346800      13.41784800     111.49939900
H        7.01849800      13.08362000     113.07277100
H       11.20053400       9.09064000     111.51213500
H        9.77065400      11.61289900     114.94749400
H        8.55323600      12.66372800     115.29193600
H        7.20837400      10.04389300     117.11097600
H        8.94493600      10.16106200     116.93947500
H        7.91014900      11.53177200     117.05122500
H        4.15164300      12.79311500     116.43998400
H        4.29105600      12.53489700     114.65959900
H        3.91764400      11.29995200     115.61372600
H        8.12985900       9.69572500     113.16621500
H        9.37260200       9.35490100     114.37039400
H        5.74303300       7.08297800     115.12800000
H        5.93349900       8.79104800     115.57626400
H        7.74895100       6.23691800     118.80971100
H        9.36927800       6.64239800     118.17704500
H        7.79477800       6.10494800     113.74958400
H        7.36139400       7.15665800     112.50382400
H        9.11621600       6.95712400     113.03624300
C        4.40868100       0.39279500       2.25220400
C        4.04007600      12.58533400       2.71758500
C        3.09186000      12.42343600       3.98255300
C        3.99395800      12.75014500       5.26571000
C        2.57625300      10.93586500       4.08174900
O        2.60164300      10.29382700       5.14339400
O        2.37808400      10.42712400       2.89704800
C        2.23949200       9.00049500       2.71958300
C        1.84434500      13.40454000       4.03305500
C        0.58404100      13.36983300       3.13001200
C        0.96631500      13.49795900       1.65588400
C       13.49375300      12.02393100       3.32314200
O       13.18361100      11.25440500       2.37557600
O       13.34297000      11.72849000       4.61979600
C       12.80750000      10.45297100       5.03615400
C       13.25557400       0.96312300       3.58454900
C       12.00035500       1.45626600       2.76906700
C       11.41013600       2.63160800       3.58765700
C       12.56189300       2.19973700       1.52201700
O       13.03002000       3.34384100       1.59833700
O       12.42407500       1.53707400       0.34868500
C       12.68327200       2.27666700     155.91195000
C       10.99588300       0.29157800       2.51380900
C        9.52670400       0.54063200       1.85082300
C        9.57868200       1.52028000       0.67300900
C        8.55308200       1.18380800       2.92098000
O        7.45524300       1.62321500       2.67051000
O        8.96341100       1.09347800       4.16211300
C        8.28437600       1.65630700       5.23135800
C        8.88396100      12.89426300       1.25049900
C        8.76435500      11.57764600       2.05279200
C        9.90497200      10.62795600       1.85319800
C        7.55661400      10.78600300       1.48399700
O        6.78976400      11.14035000       0.60273900
O        7.32276100       9.75158400       2.30750100
C        6.36976500       8.75540700       1.89936900
C        8.43824800      11.74555800       3.52729000
H        5.37830200       0.34861400       1.65571900
H        3.26742500      12.80652900       6.03957200
H        4.71944400      11.91770000       5.41983500
H        3.11804300       8.46840600       3.06917400
H        1.44764900       8.58702800       3.32962300
H        2.20628000       8.60858500       1.69940700
H        1.45562600      13.36649500       5.02538000
H        2.13941200       0.83149800       4.04522600
H        1.74817700      12.67307500       1.34804900
H        1.33635700       0.87841600       1.23298600
H        0.12633200      13.24685400       1.02038900
H       11.89122800      10.52527200       5.64425300
H       12.32752100       9.86059200       4.21425400
H       13.46552200       9.93930300       5.64378700
H       12.84956100       0.53390300       4.46059000
H        0.12331600       1.85588400       3.80688100
H       10.55211500       3.06494300       2.99098300
H       11.05162400       2.32502800       4.51297200
H       12.16206900       3.38074200       3.65720900
H       12.77549700       1.52560700     155.09883600
H       11.89075700       3.06315200     155.73706400
H       13.67706000       2.68208800     155.93882000
H       10.19329000       1.19753900     156.69957700
H        8.62813200       1.64765800       0.22198300
H        8.85200500       1.67191200       6.08990500
H        7.34516200       1.25639800       5.46306900
H        7.84612600      13.21164100       1.04445100
H       10.24456700      10.64296100       0.84860400
H        6.25413900       8.12602900       2.73052400
H        5.40852900       9.15892300       1.60138600
H        6.87869100       8.22183900       1.10988000
H        8.36796900      10.79121400       4.06209200
H        7.62880300      12.37426200       3.65864100
