4947
Lattice="25.14575853107234 0.0 0.0 0.0 25.138555698125323 0.0 0.0 0.0 75.01787444653142" Properties=species:S:1:pos:R:3:momenta:R:3 step=2000 time_ps=1.0 temperature_K=303.76000954939724 pressure_atm=1482.1051025390625 density_g_cm3=1.192014324702395 pbc="T T T"
C        1.69596965      22.87586629      39.87435550       0.26268090      -1.24272920       0.01765129
C        2.45474855      22.04202421      40.88729322       0.53934896      -0.66594858       0.45839014
C        2.56114764      22.51280475      42.31003347       0.24810311      -0.28898885       0.40499971
C        3.12457252      23.88923371      42.37698197      -0.53649670       1.03583167      -1.39366346
C        3.51571195      21.54312760      43.00870701      -1.24856040       0.32071905      -0.18422859
O        4.60849003      21.84913942      43.37620583      -0.05516966      -0.26420547      -0.20690913
O        3.01381912      20.27930005      43.13217471       1.45016839      -0.20677199      -0.36312913
C        3.92180092      19.29348079      43.54670831       0.46066113       0.68275169       0.29901073
C        1.13403977      22.53046552      42.91197800       0.49800398      -0.55467091      -0.86392885
C        0.89785340      23.14065608      44.41314249       0.71587326       0.04500845      -0.10505240
C        1.83331363      22.35619711      45.26523010      -0.11779809       0.43309606       0.31616653
C       24.59919711      22.74884520      44.79348687       0.71264860       0.13567090       0.62949801
O       23.85830657      22.53026773      43.87690146       0.15819551       0.23198505       0.34630865
O       24.22161654      22.85032991      46.08675190      -0.28157099       1.72035648      -1.20660724
C       23.04149613      22.15781090      46.42126014       0.06664986      -0.50939636      -0.51266261
C        1.06750242      24.61683286      44.68484131       0.06828606      -0.18185621      -0.04667210
C        0.17549938       0.61191991      44.33409150      -0.16695006      -1.39956197      -0.71349272
C       24.61473979       0.32145746      42.98221256      -0.11957725      -0.44652578      -0.60064930
C       24.13081708       0.61337588      45.26191153      -0.23016790      -0.52232865       0.31753492
O       22.97306365       0.59210865      44.92755351       0.24562721       0.85476049      -0.18821538
O       24.47983964       0.87626960      46.51445412       0.76067013       0.03065212      -0.37388677
C       23.39732579       1.08530424      47.44266119       0.22279446      -0.07304562      -0.62816453
C        0.86866356       1.98488688      44.27663309       1.12431512       0.07510619       0.27066513
C        1.85177072       2.66727229      45.14197359       0.04819825       0.39804935       1.24007016
C        3.22054249       1.92533555      45.15513912      -0.45260840      -0.52871295      -0.44792189
C        2.18192111       3.92440871      44.40689823       0.32772087      -0.66299756      -0.50833151
O        3.10355976       4.01969551      43.63394861      -1.35259104      -0.83608689      -0.36204315
O        1.41716804       4.95772841      44.71686198       0.08390274      -0.28198224      -0.05263683
C        1.61792491       6.13219556      43.92127680      -1.20070469      -0.66071859      -1.14440047
C        1.34890077       2.96693599      46.55700041      -0.16089316       0.19940381      -0.16750281
C        2.15239689       3.79495351      47.64310401       0.38295144      -0.06051679       0.33024684
C        2.21511549       5.30716870      47.38383953      -0.85404672       0.12709696      -0.88511134
C        3.48295127       3.18665756      47.88690692       0.09117999      -0.93138222       0.86714088
O        3.55459967       2.05995836      48.25213719       0.99191832       0.27578255       0.23080812
O        4.53568745       3.97558302      47.72337198       0.32940252       0.91949896       0.39291309
C        5.79586020       3.36682083      47.90064636      -0.22464302       0.15453183       0.73002033
C        1.40373875       3.61144392      49.00919701      -0.59725606      -0.15335258      -0.10526871
H        0.72930163      23.26085000      40.16481159      -0.01551685       0.08284605      -0.01602283
H        2.22481496      23.75106005      39.53905826      -0.23066769      -0.10235445       0.03511942
H        1.42349496      22.26318881      39.02090459      -0.04036207       0.04019540       0.11295367
H        3.46693642      21.96392611      40.43611082       0.08688966      -0.06696873       0.11429817
H        2.07846255      21.03546510      40.97135246       0.04197162      -0.00863620      -0.04283615
H        2.39033530      24.55209976      41.90590522       0.13369789       0.51138334      -0.11224481
H        3.28224250      24.27019400      43.35033660       0.01268633      -0.04498175      -0.10210130
H        4.07940835      24.01076344      41.80930898      -0.02985282      -0.17808359      -0.25194485
H        3.82192916      18.39498050      42.98571199       0.06481629      -0.14539050       0.06462313
H        3.64305573      19.04333841      44.58257281      -0.02131430      -0.17718713       0.12348796
H        4.99746438      19.54152084      43.48295877       0.08180173      -0.17398727       0.08207055
H        0.91196501      21.46440683      42.97453964      -0.01315681      -0.06896796      -0.07737455
H        0.41902750      22.98539147      42.22081217      -0.16095998      -0.25675872       0.01421604
H        1.25790929      21.39901705      45.21014120      -0.03329676      -0.05155087       0.06889098
H        1.54264210      22.55224481      46.29061176      -0.21164070       0.03242445       0.16185282
H       22.19688314      22.43248486      45.81061358       0.05598631      -0.18030000       0.17535761
H       23.28850560      21.10156406      46.22631401       0.13201797       0.00717200       0.09278228
H       22.86068168      22.23104959      47.50197467      -0.13922706       0.08181024      -0.13314886
H        1.64509429      24.87750621      45.52697792       0.10319016       0.07863388       0.10221154
H        0.29417037       0.43641272      42.30138370       0.34243805      -0.17193223      -0.13236524
H       23.74974864       0.87359188      42.67907694       0.00976280      -0.21792952       0.16487032
H       24.20855487      24.43407940      42.92016413      -0.18471421       0.15644853       0.21064251
H       22.75812337       0.24923620      47.46884366      -0.13243400       0.03756288      -0.15804753
H       22.85789115       2.04860496      47.15561793      -0.19449596       0.11372140      -0.13787741
H       23.88195776       1.17906128      48.41114867      -0.10471822      -0.15145987      -0.13660637
H        1.15387338       2.12805064      43.25139093      -0.02101756       0.10419349      -0.07204635
H        4.02337446       2.59219144      45.50164034      -0.19881457       0.18139798       0.17379776
H        3.18841370       1.11058700      45.85109600       0.00538675      -0.14199485      -0.39046000
H        3.48371922       1.54505897      44.16459627      -0.18478438       0.07013493      -0.15028221
H        2.64927575       6.49026811      43.95783191       0.08105190      -0.15466830       0.04664093
H        0.89929555       6.83635101      44.24150315      -0.00937066       0.03226008       0.20744766
H        1.32915950       5.87518365      42.93714010      -0.02304320      -0.00562877      -0.10948070
H        1.12080620       1.97119015      47.00714896       0.14722107      -0.08728350       0.03018140
H        0.33798141       3.40871026      46.44145087      -0.06995233       0.02874358       0.08289169
H        1.26821332       5.64904730      47.07275383      -0.09431606      -0.04646865       0.11257559
H        2.95266588       5.60285254      46.68471004      -0.10388152      -0.13237674      -0.15119951
H        2.44683548       5.74750743      48.32260457      -0.04133955      -0.03388317      -0.02725826
H        5.73673545       2.93590947      48.84840978       0.08578285       0.29514744      -0.08163787
H        6.47838326       4.21010370      48.04654529       0.31271685      -0.13141890       0.03768412
H        1.81790855       4.20776079      49.78884957       0.02569250      -0.03049736      -0.00390808
H        1.32298610       2.53964935      49.29920048      -0.09179592      -0.12938111       0.06180355
H        0.37348515       3.95449690      48.91716385      -0.13672539       0.00834133       0.08030985
C        9.78134537       5.43629764      34.24074503      -0.30830571      -0.09681657       0.54739084
C        9.22395989       4.16701317      34.91020623       0.94128642       0.86870980       0.35773939
C        8.83870510       4.35685586      36.36578018       0.52859385       0.50324566      -0.21293311
C        8.39917455       3.07887054      37.04409736       0.49592298      -0.37206696      -0.27172693
C       10.15506202       4.80089032      37.03493735       0.02218876      -0.54743959      -0.63798130
O       11.22111191       4.26546029      37.02148136       0.39239484       0.67692704       0.93680338
O        9.96885095       5.96131928      37.77624391       0.06983079      -0.29426290       0.17828163
C       10.84783944       6.83008171      37.92397909      -0.16219571      -0.21813791      -0.04554638
C        7.86059038       5.45428781      36.68254892       0.17548978      -0.32990479       0.09137322
C        6.38429700       5.50007441      36.00307010      -0.61699199       0.36553334       0.18276816
C        5.59103250       4.24969479      35.95634755      -0.75430444      -0.27204321       0.58183293
C        6.67470816       6.08808484      34.60816921       0.73313341      -0.09978362      -0.16019943
O        7.32339550       7.10992135      34.48978987      -0.30222960       0.22190554       0.51395920
O        6.22244325       5.47244981      33.55067892       0.75295984       0.15308341       0.30432094
C        6.35557573       6.20186722      32.35137220       0.67106337      -0.89420131      -0.70153300
C        5.68180765       6.62652864      36.93006916      -0.15023423       0.58946525       0.94283089
C        4.22484840       7.18359971      36.62332003       0.10958915      -0.52252868       0.33091665
C        4.35754611       8.09119640      35.40356721      -0.33025153       0.26786206       0.24931730
C        3.23919991       5.94125995      36.34038812      -0.57489233       0.50365984      -0.27489276
O        2.61906858       5.28322539      37.13903256       0.06732772      -0.77362683       0.02315531
O        3.17535495       5.76290431      34.99760298       0.43803347       0.27706768       0.19214060
C        2.46103018       4.56840019      34.60895799      -0.40648598      -0.08323895       0.07065404
C        3.64170593       7.89445152      37.83494419      -0.36213243       0.10207262      -0.64522339
C        3.63434340       9.26778580      38.31998638      -1.08688414      -0.08776792       0.38394062
C        2.69508932       9.38727401      39.57130826      -0.20539031       1.25258516       0.03118808
C        3.07523657      10.30031452      37.30587036       0.63186418      -0.88508939       0.23775742
O        1.91910681      10.52196014      37.13706306      -1.37480787      -0.57849254      -0.22979970
O        3.98310861      10.91253287      36.54021322      -1.62081635      -0.16934148      -0.61874369
C        3.42419908      12.01269525      35.74859057       1.74514764      -0.01583901      -0.86788618
C        5.04686160       9.59107627      38.57025070      -0.84812898      -0.27017256       0.40727801
C        5.82383601      10.35479871      39.63909965      -0.04494519      -0.22466590       0.47867228
C        5.16147134      10.61134376      41.07241895      -0.19383443      -0.21695398      -0.39479894
C        7.15984475       9.63340909      39.96539417      -0.94863484      -0.36705964       0.83941995
O        8.21781088      10.17369383      39.81297815       0.38166606       0.53978973      -0.08967591
O        7.03668140       8.44893498      40.51478907       0.00977653      -0.52949230       0.40788254
C        8.22142700       7.88746489      41.05670953      -0.34993688      -0.99968399       0.81369998
C        6.18995349      11.67040452      38.98309279       0.23114642       0.55098289       0.31428444
H        9.20157660       6.33351852      34.40672513      -0.10428615      -0.07949217       0.03589014
H       10.80633861       5.59770741      34.58181442       0.02738668       0.05686207       0.07288371
H        9.85396646       5.21911678      33.18589423      -0.10812828       0.08442006       0.03979342
H        8.32504834       3.79885357      34.40297620      -0.00037299       0.00741592       0.03071744
H       10.01339367       3.43278750      34.85382373      -0.08883228      -0.14283029       0.06873563
H        9.23607681       2.40944588      36.79871750      -0.00743735       0.01729513       0.21312313
H        7.69127451       2.63749315      36.37820797      -0.06670317      -0.02558112       0.15785723
H       11.51762793       7.01872869      37.11732235       0.01399731      -0.16631727       0.24261227
H       10.72820637       7.43669103      38.84822387       0.01481771      -0.12382274      -0.13451781
H        8.24695810       6.42919240      36.46498438       0.06202203      -0.03471132       0.02508806
H        7.69111657       5.45369395      37.76079639       0.14511929       0.17116449       0.08127205
H        5.67467612       3.64557796      35.05484847      -0.03561859       0.06652660      -0.15965422
H        5.48669646       3.61639241      36.81439750      -0.11316153       0.07730060       0.04050826
H        7.40690044       6.62938399      32.35457744       0.01336395      -0.04733376       0.05843041
H        6.30892664       5.46437082      31.54413572       0.26850270      -0.09121768       0.02362782
H        6.37339719       7.41816475      36.98474922      -0.03722039       0.01057191      -0.19234124
H        5.61929632       6.06261208      37.85392222       0.02915064      -0.21216240      -0.02498858
H        5.03018824       8.95566773      35.62009360      -0.04799798       0.00123079      -0.18045184
H        4.78340779       7.71398764      34.52364313       0.00635328       0.28588721       0.15182329
H        3.42856708       8.62597884      35.14520379      -0.14097578      -0.06203945       0.15869294
H        1.39148448       4.77906656      34.66143630      -0.12345146       0.03788581      -0.14600804
H        2.73072963       3.75837343      35.26659671      -0.07134534      -0.15531891      -0.26046563
H        2.68395789       4.34965654      33.55447188       0.19605076      -0.12512180       0.02047014
H        3.40485330       7.18663258      38.60306512       0.05304267       0.22374116      -0.08210023
H        2.98058755       8.77559616      40.43834393      -0.01417666      -0.27534908       0.05048079
H        1.67552585       9.05756199      39.19772639       0.02382278      -0.11628547       0.01983811
H        2.57985460      10.40195804      39.86698625       0.10462482       0.04580424       0.00892477
H        2.86238771      12.77452070      36.27593476       0.10514033       0.02512552      -0.00392357
H        2.78608511      11.75913892      34.91563270       0.03214685       0.09783022       0.04564180
H        4.30710856      12.47015445      35.33030968       0.09326139       0.09086246      -0.06582524
H        5.74545038       9.54587047      37.72106891      -0.15391424       0.11365375      -0.03383186
H        4.24989561      11.15579991      40.95627625      -0.17152677      -0.12615916       0.10868649
H        5.84493466      11.23352678      41.59843793      -0.10942626       0.06801601      -0.10699077
H        5.01294100       9.68641183      41.61309180      -0.06601799       0.01928808       0.15342996
H        8.68670190       8.46178650      41.84309976      -0.02509564       0.06853292      -0.04258409
H        8.99748808       7.65106499      40.31308924       0.07729742      -0.08656197      -0.00099274
H        7.95247009       6.90560828      41.45402297       0.12613103      -0.06918621       0.13780998
H        5.37166044      12.36658503      38.87820150       0.08476869       0.06729471      -0.19268283
H        6.98784061      12.13821851      39.51503988       0.11924939      -0.12278824       0.09832834
H        6.42655331      11.49546062      37.94906840       0.22088683       0.08911646       0.10581541
C        3.59149792      22.83054583      31.56064644      -1.17158221       0.64972526      -0.26813885
C        3.23154837      21.61643360      32.04136471      -0.64307662      -0.02324341      -1.64693174
C        1.00715394      24.42438643      28.83459826      -1.08443049      -0.50654677      -0.84745552
C        1.90971661      24.01288057      27.88487786      -0.28463850       0.10039300       0.58969113
C        1.27923344       0.49319397      29.68284896      -1.19981117      -1.52257762      -0.10121422
O        2.11067706       1.37318756      29.47812831       0.59095948       0.57938399       1.07983157
O        0.52387339       0.35082066      30.82567966      -0.62593956      -0.60004261      -0.01314290
C        0.74652839       1.21074025      31.93734923      -0.25626708      -0.81198698      -0.45327506
C        0.01507052      23.35474642      29.20626268       0.12510640       0.49649966       0.12937417
C       23.75500349      23.59464861      28.66366414       0.62860496      -0.24022030      -0.44909597
C       23.49142401      25.13729821      28.70055793       1.58395139      -1.27250446       0.27273091
C       23.73399205      23.19201418      27.21130584       0.01908645      -1.18295811       0.25482098
O       24.60692772      22.47419900      26.67696620      -0.04488210      -1.10807694      -0.92409189
O       22.70534861      23.77084184      26.63662454       0.22721494      -0.48774474      -0.41150890
C       22.85347573      23.54334018      25.19458495       0.61520805       0.74250322       0.22972431
C       22.56385923      22.90924953      29.45762880      -0.12533967      -0.02669180       0.25606170
C       22.09706925      21.43589695      29.21169750       0.27314359       0.01838711      -0.68172175
C       21.62308508      21.21492919      27.83660447      -1.04079888       0.68305263       0.38035474
C       23.20079681      20.47331403      29.66779265       0.89754747       0.70353232       0.02675268
O       23.56117164      19.43171959      29.10824136      -0.05398143       0.67601220      -0.15593676
O       23.85472456      20.83411700      30.75241120       0.70685561       0.70669142       0.05627973
C       24.97321852      20.07472716      31.20101337      -0.80505351       0.64356674      -0.98486384
C       20.96147900      21.18582044      30.29031147       0.85944574      -0.35948744      -0.14048034
C       19.75121145      20.26009628      29.91924248       0.26961821       0.00007625      -0.10736508
C       18.80575520      20.33995173      31.14398358      -0.20752137      -0.34769058      -0.28554007
C       18.90815555      20.86067197      28.81223979       0.92374540       0.72030266      -0.16768439
O       18.42149729      21.97225897      28.90570089       0.64672282      -0.85090181       0.31283516
O       18.74881941      20.07818250      27.75772119       0.21485826       0.75486277       0.32611697
C       18.16182126      20.72633889      26.61031559      -0.57817575      -0.05634587       0.97640453
C       20.14104077      18.77320444      29.50276082      -0.93840834      -0.81070320      -0.36637615
C       20.37701721      17.79380066      30.71595505       0.05600844       0.04201638       0.23911290
C       20.62694063      16.39878311      30.14816195      -0.94849671       0.19892913      -1.17596777
C       19.14755969      17.64481025      31.61059033       0.01782739       0.24994240       0.55136772
O       19.11193458      17.67452194      32.82081579      -0.13565838       0.00815025      -0.80039511
O       18.06488995      17.40334615      30.91185311       1.02625509      -0.40721398       0.45736528
C       16.89081334      17.29554269      31.72556206      -0.07593548       0.20376911       0.85702138
C       21.53759769      18.18811509      31.57147442      -0.03121739       0.33404505      -0.48377378
H        2.84660018      23.59232744      31.81402036      -0.32979321       0.11022091      -0.05880722
H        4.44409124      23.15235541      30.97728483       0.11867056       0.09560868      -0.06503353
H        2.17495564      21.56232524      32.34415173      -0.04423556      -0.32462814      -0.14735122
H        3.85880319      20.74719562      31.98841697      -0.05196420      -0.27166043       0.24998635
H        2.75577215      24.64687389      27.52425149      -0.01427300       0.23798821       0.28801429
H        2.03329804      22.92726243      27.81243187      -0.15403199       0.06728605       0.00013445
H        1.77372885       1.58989229      32.19411577       0.07931287      -0.31900641       0.04762497
H        0.42792468       0.51927794      32.81757062      -0.06577875       0.23876975       0.25142152
H        0.15293173       2.08519947      31.82534679       0.22762450      -0.25014428       0.10742763
H        0.44353482      22.37384902      28.85066271       0.02994624      -0.03818751       0.05012508
H        0.05921311      23.38590364      30.29616940      -0.14123009       0.31897886      -0.11537516
H       23.44387886       0.04460594      29.78957020      -0.01081912      -0.06205629      -0.04239577
H       22.47408235       0.11345255      28.34696309       0.49077318      -0.18187053      -0.12635138
H       23.43125864      24.36729294      24.79686856       0.21286461       0.13337516       0.19601288
H       23.35144666      22.61830765      25.02923439      -0.08450077      -0.01725318      -0.29298146
H       21.84319945      23.53159328      24.77290363      -0.07522547       0.16335870       0.24946134
H       21.66666781      23.53389801      29.37528048       0.10204690       0.11360857      -0.01695178
H       22.83827719      22.94298121      30.50279496       0.07929584       0.10724941       0.01918871
H       21.88433317      20.33295309      27.29235387      -0.28636281      -0.07341059       0.13324027
H       21.15012575      22.09089492      27.44612701       0.06437326       0.18928573      -0.00636926
H       24.45106854      19.35177063      31.86870243      -0.05145412       0.01587566      -0.08745552
H        0.26129514      20.76922234      31.89377013      -0.29972872       0.25545620      -0.38438766
H       20.54042611      22.19085117      30.51734542       0.24063460      -0.08261011       0.13112445
H       21.36607604      20.86509572      31.27617249      -0.20131781       0.30672707       0.11510232
H       19.16256211      19.95255862      32.06880751       0.07306955      -0.12987336      -0.03305447
H       18.56657399      21.39345714      31.33489783       0.14428783      -0.06423230      -0.14573813
H       17.85209767      19.88049384      30.97910729      -0.07398843       0.00713026      -0.03014061
H       17.12443509      20.99895642      26.83739239       0.07451493       0.00810665      -0.01275311
H       18.60772486      21.64913516      26.23360767       0.06737639       0.01849207       0.16645191
H       18.11171437      19.92634880      25.85607944      -0.01869746       0.07105581      -0.04134380
H       21.07335799      18.77953135      28.94217054       0.08919330       0.03807604       0.09272268
H       19.35970027      18.41073928      28.84651493      -0.10058377      -0.10652409      -0.02055959
H       21.63592422      16.59609357      29.78778078       0.03304905      -0.45825212      -0.43841766
H       16.06831231      17.11509184      31.00371357       0.18115166      -0.03257312       0.03686222
H       17.01136727      16.41919796      32.35757178      -0.21004272      -0.01052007      -0.10456959
H       16.74078860      18.17697686      32.33381442       0.07361528       0.10837149       0.08970387
H       22.39272442      18.27908414      30.90211899       0.04225612      -0.16845651      -0.04700077
H       21.78381080      17.48894190      32.40072698      -0.00291049       0.08247130       0.06195805
H       21.46788129      19.22585031      31.86598570       0.13149660      -0.08884522      -0.03004092
C        2.75688367      11.37518201      71.18321536       0.19689355       0.35282986       0.09285380
C        2.95274822       9.87409423      71.39986691      -1.06862023      -0.71832993       0.06183605
C        2.99451161       9.05186242      70.10191767       0.22483230      -0.40778173       0.13363945
C        3.76629103       9.58096179      68.91663810      -0.12364636       0.23840282      -0.09513855
C        1.46734824       8.90347752      69.67430494      -0.36579705       0.08203226      -0.62190078
O        0.86619163       7.89003207      69.64414716       0.07151507      -1.16681647      -0.17266959
O        0.92916490      10.06938346      69.30290934       0.24035622       0.88262435      -0.14773444
C       24.84099201      10.01537128      68.59160652      -0.85173238       0.58718818      -0.47798041
C        3.48337160       7.56672052      70.33456134      -0.33500811      -0.54467522      -0.06490499
C        4.73021525       7.34876149      71.18940823       0.28615624      -0.18342068      -0.14215401
C        5.95740872       8.16012352      70.73758051      -0.24174477       0.17006917      -0.53365850
C        4.46913693       7.44355718      72.64062863       0.33199973      -0.43666493      -0.71448953
O        5.28114587       7.38666520      73.60522241       0.69019505      -1.05830882      -0.06918106
O        3.11473227       7.75156333      72.96200250      -0.08257831      -0.33177653      -0.85784797
C        2.81775456       8.24578584      74.11673460       0.49765623      -0.14542710       0.09509172
C        5.18143209       5.86240818      70.98919749       0.36716212      -0.18884746      -0.47738950
C        4.23929131       4.57102230      71.03995842       0.31535625       0.45825379       0.43981045
C        3.55863285       4.54429169      72.41895111       0.41323166       0.03533097       0.77959502
C        3.39381259       4.56970391      69.80357304       0.42850028      -0.57547135      -0.20115935
O        3.92699973       4.68548942      68.71216792       0.32498380      -0.19938172       0.80412164
O        2.09799170       4.41599913      69.81608244       1.16124800      -0.08694787       0.63686203
C        1.42185317       4.51834503      68.62054343      -0.06821218      -0.62146352      -0.13349759
C        5.28890535       3.38179761      70.88794688       0.38993339       0.76418469      -0.21558501
C        4.96739270       1.98620769      70.42078908       0.70679716      -0.31647263       0.63741875
C        4.85233246       1.94270060      68.91449566       0.86700316      -0.04877306       0.34941248
C        6.21600133       1.20398586      70.80934044      -0.09585613       0.13924334      -0.45339886
O        7.24506501       1.20864449      70.16514942      -0.64281556      -0.40816806       0.59774026
O        6.11459549       0.73141730      72.06027838      -0.43672976       0.45304189       0.65899891
C        7.26148249      25.13729099      72.50471520       1.23119540      -0.34008315      -0.45291117
C        3.70133336       1.37901016      71.06557639       1.00591772      -0.24408847      -0.44327942
C        3.24475581      25.06047978      70.70229447      -0.83700077      -0.09015730       0.36826068
C        2.25201942      24.56100231      71.62715298      -0.19802780      -0.15271997       0.04560822
C        2.46282749       0.03074146      69.35230319      -1.13234003       0.47728979      -0.72921017
O        1.71270351       0.85222467      69.07751538       0.19344955      -0.35857126      -0.96841053
O        3.00097148      24.27898140      68.46521701       0.81095323      -0.67306955       0.30395957
C        2.58506175      24.42369004      67.06799895       0.82818231      -0.08163931      -0.48479680
C        4.41472996      24.02228642      70.68242104       0.56353761       0.57708350       0.84908954
H        3.46928999      11.85568948      70.51773472       0.11474242       0.17936805      -0.01998905
H        2.73871823      11.83475298      72.17462686       0.29695778       0.02148136      -0.11500771
H        1.77557555      11.51906919      70.74687601      -0.07235664       0.09603812       0.04674578
H        3.92277005       9.76476144      71.90409040      -0.15766067      -0.11161297       0.06387120
H        2.23599821       9.47544302      72.07448221      -0.28757793       0.08058901       0.01293259
H        3.15038344      10.17233327      68.24224927      -0.01310498      -0.04729988      -0.07370514
H        4.11539238       8.69996410      68.33299228      -0.07613456      -0.07116272       0.12998951
H        4.64615842      10.13457002      69.18359897      -0.04434502       0.02674170       0.07563907
H       24.25477481      10.91665033      68.80286687      -0.18051361       0.02031110      -0.19969723
H       24.24152961       9.18027717      68.94700833      -0.08907394       0.00881098      -0.02783128
H       25.00113830       9.92843928      67.55336976       0.08042802      -0.05224842      -0.15321715
H        3.56986913       7.16573916      69.33977366       0.02848746       0.28907263       0.00284093
H        2.62912850       6.99556271      70.75171931       0.02822391      -0.01129754       0.06570918
H        6.84487975       7.94420935      71.30010525      -0.07686795      -0.34270478       0.04243734
H        5.82389595       9.23408048      70.73253951       0.07010766       0.03510505      -0.06931237
H        6.10907281       7.85510349      69.71146664      -0.07034469       0.11493256      -0.06685831
H        1.91582472       8.82047578      73.97344591       0.15869618      -0.00428028      -0.18074012
H        3.52462856       8.24673484      74.94798954      -0.07905984      -0.10730382       0.07798308
H        6.05367062       5.69747476      71.65224494      -0.14039744       0.15087395       0.01911576
H        5.64754238       5.81125785      70.00299218       0.38884547       0.11044515       0.12533575
H        4.22717270       4.92912349      73.16564873       0.07384087      -0.00628765       0.15724174
H        2.65620036       5.14026883      72.36851407      -0.03121450      -0.18539341      -0.04871888
H        3.27177644       3.53906084      72.65002164       0.09713619      -0.06146024       0.10771747
H        0.46211974       4.06770868      68.88467868       0.01925460      -0.11955994       0.11388995
H        1.92633278       4.09952377      67.76422449      -0.16854275      -0.22909059      -0.04594191
H        5.83293488       3.34032513      71.84272550      -0.01323171       0.10238390       0.09124442
H        6.03347037       3.71093444      70.16987216       0.30003868       0.06297086       0.22583272
H        4.75570515       0.91547132      68.51409967      -0.10731178       0.04729000      -0.05028969
H        5.74880196       2.36072101      68.42310173       0.06899931      -0.17076365      -0.07385114
H        4.01078684       2.51875894      68.48168250       0.14969930       0.02932264      -0.05926226
H        6.86393183      24.52683759      73.27310500      -0.12738132       0.18424590      -0.18791669
H        8.04813231       0.62690459      73.00953733       0.07226330       0.22182673       0.02870560
H        7.75624266      24.59678312      71.71124864      -0.28688052       0.14849832       0.23927282
H        3.76865207       1.48824800      72.16990309      -0.05456092      -0.08033181       0.14661656
H        2.91454493       2.09738966      70.77277491       0.05565882      -0.23943092       0.12034783
H        2.56273509      24.61704015      72.71136717      -0.07894303       0.00179438       0.07074710
H        1.80917396      23.61367998      71.48504988       0.04437310      -0.13931609       0.00563174
H        2.82537687      23.46995615      66.58566112      -0.04819162       0.00158161      -0.20598401
H        3.19152693       0.13503192      66.76357638       0.00005048       0.12564648      -0.07965030
H        1.54991569      24.73276165      67.02903036       0.17523959      -0.05127474       0.17309969
H        4.89225246      24.19814595      69.67810446       0.24592670      -0.16421051       0.01627262
H        3.89194864      23.05898370      70.55024799      -0.05825289       0.08519868      -0.03559909
C        3.57712701       9.94328297      27.56294662      -0.69991823       0.10207781      -0.41054402
C        5.00677969       9.66607263      28.06262239      -0.12971398      -0.26843990       1.12533984
C        5.21065175       8.31447794      28.84720354       0.02599087      -0.69652971       0.09005989
C        4.73554025       7.11518209      27.92035548       0.37835627      -0.68849122      -0.04712536
C        4.32211707       8.38914720      30.09890202       0.00362275      -0.20718140       0.67822895
O        4.23052997       9.34806199      30.76386077      -0.41963799      -0.04764151       1.14596751
O        3.85130789       7.21053251      30.46756745       0.13252394       0.14854817      -0.29113467
C        3.29363031       7.11389577      31.82518556       0.28235181       0.12620327       0.34202836
C        6.67762047       8.45624678      29.46670513      -0.27007702      -0.57086479       0.72544475
C        7.90184256       7.90022797      28.56720479       0.62735829      -0.37054945       0.85282190
C        7.99819377       8.82482706      27.47900130       0.17138842      -1.61024334       0.77098012
C        7.58683388       6.41176256      28.24515350      -0.22065659       0.27033073       1.17961264
O        7.20317526       5.76117699      29.13982336       0.39911792       0.35072196       0.50749106
O        7.75301496       5.97297848      27.00623777       0.04517360      -0.47346388      -0.50288758
C        7.17399953       4.68534836      26.73092548       0.44895812      -0.37112370       0.18409565
C        9.13166625       8.04812034      29.47255677       0.13463202      -0.38530786       0.62727774
C       10.56689636       7.53395553      29.09088293       0.39216145       0.34189639      -1.09862205
C       10.65043827       5.96810856      29.26800225       0.07027844       0.44831366       0.06367834
C       10.98308711       8.08838719      27.73705693       0.83716631       0.25177591       0.14889747
O       11.42415646       9.20523689      27.54304635      -0.96907602       0.53290451       0.98386309
O       10.68745034       7.28177847      26.78280209      -0.15115954      -0.50591890       0.03016717
C       10.55981963       7.75410384      25.43853256       0.01547844      -0.46366290      -0.07097703
C       11.54415523       8.24723791      30.09128067       0.43465766      -0.40474537       1.11306689
C       12.37123643       7.56216459      31.26046037      -0.03939395       0.55497172      -0.04857979
C       12.69158119       6.10356943      31.55613096      -0.09923782      -0.34266426       0.13462071
C       12.19778032       8.44336348      32.45337016      -1.15097217       1.35890838      -0.40866487
O       11.87958494       9.62105427      32.49139516      -0.12978212       0.75800401       1.38759946
O       12.73009910       7.91656834      33.50027005       1.12740506      -1.17184965      -0.13749985
C       12.52785141       8.33895283      34.81934326       0.36260836      -0.68600986       0.20743736
C       13.01976586       8.36753980      30.20065431      -0.93123145      -1.11377164      -0.74791918
C       14.11425542       7.92233175      29.18989947      -0.00546691      -0.81457606       1.19063740
C       13.80067726       6.57669844      28.50006178      -0.64891305      -0.18340896      -0.40078577
C       14.18323009       9.05009178      28.18488012      -0.77094114      -0.23502879       1.83682911
O       14.13268318      10.23540673      28.43013196      -1.06233776      -0.36874432       0.64398424
O       14.28589482       8.48944915      26.95331783       0.16449347       0.79348533       0.93021128
C       14.35757108       9.26313793      25.81748645       0.37825869      -0.54736764      -0.46543483
C       15.46000320       7.93073691      30.05623903       0.19966952       0.24262719       1.07437893
H        3.43299089      10.93687024      27.16295046       0.20503509      -0.04339998      -0.00426747
H        3.43357546       9.23143249      26.77445230      -0.15085778      -0.20340362       0.20794672
H        2.85150560       9.73923403      28.36519779      -0.11516745      -0.04062884      -0.16399105
H        5.26107551      10.51006523      28.74939845      -0.15277041       0.20533396       0.04906948
H        5.73003869       9.65425572      27.29283079      -0.11995733      -0.28921740      -0.06096314
H        5.37052619       6.97510797      27.07239997       0.03316599       0.24177680      -0.12639781
H        4.49399301       6.19107901      28.38432096       0.25648192      -0.03745664      -0.11757145
H        3.84711652       7.48174906      27.42311614      -0.11489748      -0.08686827       0.25192602
H        3.44615630       6.06925046      32.09976727       0.29006043       0.04949091      -0.09026072
H        2.26074920       7.48288244      31.92285820       0.30306668       0.02095693      -0.06720257
H        3.98800693       7.66467643      32.51416772      -0.08447376       0.09431889       0.20689544
H        6.83060807       9.52250998      29.47823208      -0.11749346      -0.07387667       0.01238511
H        6.70435998       8.01463291      30.44034466       0.02141424       0.05248898      -0.00254388
H        7.66879236       8.25333770      26.61538214      -0.05847534      -0.10146290      -0.00785974
H        6.19468154       4.89731509      26.36094244       0.14637476       0.18182124       0.03578686
H        7.02056283       4.10678610      27.61070521      -0.34193371      -0.09276518      -0.12305348
H        7.80001084       4.18971639      26.04611906      -0.06826853      -0.04459379       0.13550345
H        9.22962517       9.07280106      29.81253800       0.24711029       0.19024412       0.15674915
H        8.89824123       7.43727064      30.35159263      -0.11025927      -0.10696290       0.03194388
H       10.20479479       5.47277991      28.37808188      -0.08211916       0.03098066      -0.00730715
H       10.08579342       5.57184928      30.09150316      -0.09549739       0.20635314      -0.05082161
H       11.60801990       5.49312952      29.29990927       0.13317201       0.01761903       0.20065256
H       10.86917840       7.03060479      24.69212259      -0.10602351      -0.02295604      -0.01837838
H        9.44635402       7.89556828      25.28661116       0.00839908      -0.21927053      -0.29504500
H       11.11360218       8.67252859      25.35757069      -0.04201488       0.02953673      -0.03361521
H       11.23166968       9.25672253      30.34827354       0.16730161       0.05743771       0.13315171
H       12.56029603       5.90569950      32.59371545       0.16588283      -0.06897013       0.11670656
H       13.74352841       5.91758866      31.32878845       0.04252613       0.13359554       0.28096518
H       12.09518460       5.58394659      30.80604684       0.30210216      -0.22607345       0.00154944
H       13.48033384       8.09012567      35.32439561      -0.11441714      -0.04821400       0.15103068
H       11.66521940       7.76222239      35.21981249      -0.08364625      -0.01386955      -0.08153474
H       13.21228929       9.42339205      30.35689928       0.33079122      -0.14980285      -0.10682644
H       12.88990986       6.53691857      27.87167288      -0.15186292       0.34124334      -0.19772489
H       14.61627794       6.36789432      27.80792008      -0.19229757       0.02942140      -0.14733605
H       13.86413576       5.68549325      29.14641576      -0.05988136       0.00391524       0.27445283
H       13.51595633       9.94010159      25.80658123      -0.00498223       0.02235319       0.09414898
H       14.68367669       8.62326414      24.99176838       0.30598095      -0.02096779       0.12631916
H       16.06566089       8.84988960      29.98511581      -0.04688797       0.03986983       0.09764114
H       15.27158070       7.79404867      31.13325546      -0.12950701      -0.10929144       0.17307750
H       16.08710632       7.11863197      29.66208791       0.08681331       0.04762843       0.05985271
C        0.43733032      12.16614912      73.93630703      -1.21332211       2.32105418      -0.30422928
C       24.94792200      11.14551536      73.13539925      -0.91670914      -0.65569538       0.21306236
C       24.86425935       9.22714653      74.62541314       0.64058471      -1.19916247       1.15351435
C       24.66789431       9.74784536      73.33415941       1.30087078       0.12602994       0.68368352
C       24.95540729       9.55072304       1.08394760       2.19277558      -0.92119947      -0.89776419
O        0.66329207      10.10211144       1.70851720       0.24474497       0.40541547      -1.20871245
O       23.47071029      10.31693647       1.55795087      -0.52836781       0.04727633      -0.03869358
C       23.48108792      11.08734496       2.42537314       0.45935783       0.98015727       0.26743760
C       24.89949818       8.33977840       0.57621126       0.32487997      -0.25397476      -1.84192389
C       24.92760713       7.03814967       1.22178035      -2.35622577       0.71118623       1.88834269
C       24.39941527       7.07247323       2.71615897       0.99896573      -1.33255681      -1.99561261
C        1.02379456       6.16696649       1.09633375      -0.14404086       1.58631979       2.03625890
O        1.77061029       6.16956434       0.12576322      -1.10290801      -1.31771338      -1.52185925
O        1.15999384       5.37464319       2.28815756       0.20729321      -0.66957048      -1.34000368
C        2.21424513       4.36222244       2.23156618      -1.05108144       1.07986434       0.08891225
C       23.62196609       6.43374720       1.62992457      -1.49307944      -0.44121210       1.67467383
C       23.07493870       4.83461418       1.62314336       0.07718475       0.35662765       1.92803521
C       23.33008058       3.99002938       2.95459447      -0.36934896       1.30093975      -1.03876894
C       21.57892984       5.02923720       1.52639251      -0.69040697       0.59233349       0.89374349
O       20.99210965       5.27651801       0.55870335       2.49876536       1.82944519      -0.76192111
O       20.86179996       5.00760984       2.74326832       0.56761501      -0.81909887       1.09403696
C       19.50966246       5.21533060       2.76303422      -0.63457855      -0.29233052       0.09682843
C       23.62178578       4.08734498       0.42140295       0.50566768       0.76463887      -0.63898055
C       22.98819954       2.65528336       0.19531762      -0.61628338      -0.58291800      -0.63351919
C       21.52614669       2.31612212       0.60286814      -1.13975974      -1.20392256      -0.23835009
C       23.83761670       1.49316796       0.84947104      -0.07448504      -0.94054031      -0.33940800
O       23.66177511       0.30804256       0.72141343       0.25850251       1.14151724      -1.74972393
O       25.13369574       1.92383887       1.31989200       0.33839588      -0.92218691       0.44208418
C        0.85592357       1.20125779       1.85200402       0.70173889      -1.49367977       0.08648066
C       23.13864135       2.24349769      73.71773050       0.61656549       0.94609386      -0.17402090
C       23.88309178       2.69456359      72.42931654      -1.30228373       0.44318322      -1.49473464
C       24.26672584       1.48638913      71.55967176       0.59064633       1.31869340      -0.26121722
C       24.95816892       3.74995747      72.43825676      -1.06573581      -2.24190571       0.97747208
O        0.93471319       3.47170178      72.35854551      -0.67441761       1.09922474       0.42561960
O       24.37452476       4.95607132      72.57247242      -1.06198700      -1.26988689       1.42240503
C        0.23975676       5.89556533      72.31207008       1.45671084       2.07289301       0.09293157
C       22.40932022       2.94910560      72.50962039       2.71086856       0.30676656      -0.62816342
H       24.88522210      12.38900703      74.69128090      -0.00879545      -0.23065745      -0.27114695
H        0.36217766      13.12631493      73.40775774      -0.05262496       0.30087626      -0.48414502
H        1.44214775      12.18948916      74.46009245       0.25363502       0.04756194      -0.01840175
H       24.67655615      11.48525908      72.20626720       0.29987135      -0.61441270      -0.08716575
H       24.56313361       8.96383741      72.52232730      -0.36258960      -0.69124986      -0.38848161
H       22.53648175      11.86763213       2.45753631       0.10379126       0.20631060      -0.03932335
H       23.78746134       7.82260448       3.07780063       0.01256278       0.02654535       0.19171215
H       24.97824264       6.36727696       3.28950824      -0.35821296      -0.32241355       0.25636821
H        3.05077225       4.93895149       2.58412954      -0.11326867      -0.30128984       0.02965133
H        2.42946005       4.04213360       1.22075564       0.04496345       0.17093431       0.08101035
H        1.94187058       3.56207273       2.89053304      -0.12685657      -0.08460172      -0.24340978
H       22.80156564       6.94852865       1.07670481      -0.02225515       0.26083068      -0.12016394
H       22.52152620       4.44198585       3.51761746       0.00394775      -0.04854562       0.31570933
H       23.16317918       2.89817387       2.94585119       0.24931367       0.27449889      -0.05282467
H       24.29543233       4.19834019       3.37652114      -0.13622058      -0.02776720       0.15179243
H       19.27834868       5.00868980       3.84976083       0.09117152       0.17245357      -0.32988574
H       19.08004459       4.45767801       2.08144972      -0.48100744      -0.00992173      -0.26699761
H       24.65281100       3.87504101       0.36665904      -0.00165812       0.05193858       0.12847560
H       23.28004798       4.57669664      74.52323026      -0.03420854      -0.10958297       0.03784001
H       21.47774512       1.22832615       0.45196133      -0.63272965       0.19152805       0.09730125
H       21.31971757       2.62033693       1.61239186       0.41187126       0.40540042       0.10493903
H       20.74908924       2.64005101      74.92137706       0.15100207       0.24360549      -0.11279344
H        0.92680849       1.39228640       2.88094063      -0.34251724      -0.13314523      -0.19797744
H        1.25106913       0.29789396       1.30055859       0.24675687       0.17058856       0.05335408
H       23.24994202       1.14291475      73.70110443      -0.05790746       0.15374295      -0.17753013
H       23.50489365       0.66557512      71.83161393      -0.07870532       0.18999223      -0.42801340
H       24.18581676       1.60576543      70.43976126      -0.08029358       0.09633646       0.07706221
H        0.03715590       0.89817851      71.78113846      -0.05385871       0.06858350       0.03631205
H        0.92882124       5.79820948      73.10457207      -0.09256574       0.22975009      -0.18489907
H       24.84590955       6.84653099      72.32078667       0.43518415       0.51380584       0.24357586
H        0.76158808       5.69531986      71.29222364       0.29495903      -0.07691480       0.09529649
H       21.80376176       2.50799434      71.73317479      -0.12384189       0.19556447       0.56533664
H       22.09657095       3.88167203      72.82508200       0.10611484      -0.17777847      -0.38394535
C       22.56742838      11.94027448       6.16185555       1.04776170       0.43798457       0.70743251
C       21.24936940      12.66374654       6.26191430       0.10888043      -0.43189916       1.16626051
C       21.10971301      14.13364521       5.84934878      -0.54391007      -1.10974528      -0.20707661
C       21.81954016      14.47888924       4.54094194      -0.53285007       0.26469871      -1.51083950
C       19.60913396      14.44077926       5.84926300       0.29692826       0.56958159       0.26373922
O       19.15918759      15.28721002       5.14010095      -0.39409310       0.43956569       0.36444093
O       18.83860446      13.58686795       6.56905568       0.31327530       0.18694905      -0.61396336
C       17.46505743      13.95417204       6.71508654       0.36854187      -0.43725216      -0.09433204
C       21.89193159      14.93752313       6.91728345       0.22854893       1.48184187       2.57837988
C       21.37844210      15.91671868       7.93562891       0.38230151      -0.72111336      -3.08716308
C       21.69279449      16.63066924       6.61517386       0.52917375       0.00265002       1.67351835
C       22.54943233      16.22919003       9.06581702       0.41822618      -0.48648257      -0.51678925
O       22.99739167      17.29904754       9.25925368       0.02472872      -0.30631665       0.81007130
O       23.10239505      15.09869168       9.48303530      -0.43687241      -0.12637939       0.66500990
C       24.04817794      15.16842249      10.51201914       0.25247146       0.45426103       0.90886493
C       19.82886649      15.94257836       8.65672998      -0.04253837      -0.81949164      -0.33931086
C       19.66341338      15.08892208       9.95478313      -0.04261958      -0.34439985       0.14042464
C       20.24916099      13.64076816       9.79405180      -0.78383753      -0.16146061      -0.55959227
C       18.17038545      14.98813112      10.17325437      -0.49405047      -0.11474575       1.10863207
O       17.52828967      13.97283164      10.28669163      -0.19055312       0.62240406      -0.73713558
O       17.58050374      16.17903567      10.21704599       0.11958580      -0.82199547      -0.13996538
C       16.18021420      16.12301942      10.14593986       0.41557316       0.20429286       0.12969047
C       20.26624703      15.92338508      11.04168501      -0.89210989      -0.30874588       0.02409048
C       20.19165646      15.66277904      12.44082297       0.41587762      -0.58866901      -0.06893840
C       19.72800900      14.28695858      12.75302652      -0.25861827       0.01460321      -0.08807197
C       21.64315991      15.76642050      12.82899802       0.02670504       0.62695060      -0.31934035
O       22.35896532      16.75448531      12.86788895      -0.61138521       0.73560884      -0.33390138
O       22.06803009      14.56205240      13.13789534      -0.41347811      -0.23406942      -0.00220445
C       23.34544779      14.14327824      13.51820739      -1.16834654       0.35978226      -1.07171970
C       19.36479841      16.79866214      13.16805905      -0.27446788      -0.05667788       0.27872988
C       18.96107525      16.76052936      14.70428898       0.12105232      -0.40621734      -0.15149057
C       17.91890888      15.71914280      15.07553948      -0.18398257      -0.17662973      -0.14415734
C       18.36846092      18.24600904      14.97714389      -0.67188891       0.35291751       0.51799800
O       18.90973953      19.10679857      15.58485462       0.31517131       0.00894154       1.24395223
O       17.09612969      18.32013474      14.48407080      -0.29639522      -0.42850285       1.48409994
C       16.33275609      19.50523800      14.67962884       0.68289302       0.08908256      -0.79048738
C       20.13395192      16.67056985      15.65336461      -0.90553731       0.35771949       0.01368369
H       23.15843243      12.22272091       5.29709051      -0.37065322      -0.10765493      -0.08653634
H       23.16983067      12.05876031       7.04075153       0.21366269       0.10480689       0.12884203
H       22.38798246      10.88516534       5.95265922       0.03483288       0.05951248       0.10094411
H       20.57439227      12.19906148       5.54867707       0.00735179      -0.12246236       0.13742616
H       20.77467724      12.51879611       7.21587028      -0.06152874       0.21747918       0.10738590
H       21.64680843      15.54208506       4.23171799      -0.21587199      -0.05678572      -0.01832048
H       21.66201407      13.77224581       3.72583870       0.07650245      -0.13375169      -0.15375931
H       22.86505721      14.38774797       4.80336200      -0.04706056      -0.07115749      -0.18386240
H       17.01161287      13.08338128       7.16295469      -0.07324331       0.01175573       0.13864242
H       17.01106276      14.23181999       5.77212405      -0.00817954      -0.02944836       0.10207133
H       17.33785318      14.77817057       7.43094622       0.07893217       0.07382638      -0.02353442
H       22.89857833      14.61750555       6.80248256      -0.19587355      -0.44927959       0.26040506
H       22.44241490      17.46642606       6.54436089      -0.03622610       0.09040646       0.06256006
H       20.85575924      17.00305353       5.99746601       0.20172535      -0.29442974      -0.20259568
H       23.76054647      15.89730674      11.23712654       0.05305096      -0.02776799       0.29170367
H       25.08660479      15.32967334      10.10034175       0.07883197      -0.10698102       0.06398249
H       23.94171139      14.23602804      10.99374243       0.12374801       0.30784095      -0.28635575
H       19.45148140      16.94120692       8.84981449       0.22808342       0.03216251       0.08702296
H       19.21175279      15.45831170       7.92739088      -0.25469723      -0.26015010       0.27203242
H       19.88740758      13.26494298       8.80118110      -0.10209254       0.05469645      -0.09793289
H       21.34782019      13.78432707       9.61507076      -0.03228544       0.32537096      -0.04386165
H       20.05840112      12.95506078      10.60277417       0.10989230       0.21795507       0.14753755
H       15.89393973      16.05499327       9.09649988      -0.13671962       0.04175086       0.04720591
H       15.79644078      17.00492460      10.62753688       0.11082021      -0.10429592       0.11735227
H       15.81830401      15.25133993      10.66459999      -0.07861162       0.03333456      -0.09217309
H       20.25769228      16.97776469      10.82095247       0.01407131       0.04959020       0.10773387
H       19.58832123      14.20575670      13.85117434       0.11519839      -0.00448171       0.08676269
H       20.43580340      13.54065157      12.49929557      -0.00093115      -0.12714287      -0.13562786
H       18.77680452      14.10103418      12.33297548      -0.02311870      -0.23970917      -0.18088848
H       23.10332629      13.02921455      13.45045966       0.04264946       0.04006996       0.11507643
H       18.47658433      16.99001435      12.58789501      -0.02937977      -0.03674018      -0.01892089
H       20.00749995      17.67356988      13.01342648      -0.21495824       0.14192130       0.03985942
H       18.34701925      14.70057581      15.10458656      -0.04546116      -0.07055245      -0.04264504
H       17.08550595      15.76463419      14.41639682       0.14620914      -0.07688474      -0.24034929
H       17.50150361      15.99233886      16.05189164      -0.05681855       0.09609290      -0.04277027
H       16.63980452      20.26480520      13.98127380       0.00847385       0.02845983       0.07422991
H       16.57889448      19.96203634      15.65272741      -0.20937494      -0.16030107       0.07790568
H       15.29353492      19.20997235      14.63911789       0.17438830       0.16373962       0.22200131
H       19.91948375      16.91032845      16.69195750       0.03397444       0.20812272      -0.01572989
H       20.89595337      17.37079596      15.33261261       0.09447597      -0.12721124      -0.12172810
H       20.53266704      15.64841248      15.58410172      -0.10865728      -0.14618166      -0.16411036
C       16.45641403      10.88912202       9.36864200       0.03927954       0.18808683      -0.76747232
C       16.00192211       9.83169351      10.18546117       0.72899926      -0.62502591      -0.36295926
C       14.36515737       9.65940973      10.41827292       0.47863508       0.00935729       0.35169323
C       13.64884473       9.61770857       9.16647213       0.65275660      -0.46441915      -0.29172604
C       14.22063440       8.33510138      11.16831758      -0.65230977       1.01313309       0.00609209
O       13.78821300       7.24998138      10.73001586      -0.31991799       0.08419923      -0.01309766
O       14.62936542       8.44540622      12.43736030       0.30180677       0.34768848      -0.69134470
C       14.43860246       7.31604076      13.34309032       0.42590622      -0.09279013      -0.18580863
C       13.91670278      10.83137364      11.39625873      -1.40270705      -0.32688077       0.63832385
C       12.39221880      11.08873969      11.58716621      -0.46388929       0.02890213       0.45868471
C       11.60288825       9.76182007      11.78637493       0.63043482       0.68415601      -0.02440170
C       12.41924472      11.81596702      12.91349882       0.11742331       0.09420688      -0.31472105
O       13.15552534      12.73898049      13.09357026      -0.05609921       0.13320801       0.65327350
O       11.69857113      11.16928718      13.83185926       0.57381558      -0.30479438      -0.13514854
C       11.28913321      11.68442651      15.10247193       0.34590220       0.46167981      -0.50198442
C       11.94754157      12.12639520      10.55067132       0.17861414       0.95816063       0.15134231
C       10.46111572      12.50111419      10.42085846      -0.42440928       0.63638659       0.49701654
C       10.00036769      13.16342758      11.71427978      -0.17743999      -0.21997724       0.24711885
C        9.73412052      11.23618562      10.14088886      -0.64760948      -0.16864086      -1.05531929
O       10.18324600      10.41708398       9.39178531       0.51790968       0.48774488      -0.04452372
O        8.60820614      11.03531404      10.85988002       0.91757217      -0.43431430      -0.73917309
C        7.98691832       9.76730381      10.61980301      -0.34061842       0.13142182      -0.12004670
C       10.15742096      13.27944644       9.11381557      -0.01695609      -0.35819049       0.65581919
C       10.84143355      14.65564471       8.82512944      -0.43361644      -0.07430176      -0.22970994
C       10.21120948      15.66556985       9.64924795      -0.08595381       0.06493714      -0.87602516
C       12.35914929      14.57485573       9.05490672       0.12373842       0.12978615       0.08764425
O       12.99149813      15.28288109       9.83119605      -0.46502114      -0.24649053      -0.41775825
O       12.93778348      13.75242197       8.23029959      -0.22846283       0.07198163       0.19146039
C       14.37378739      13.40519783       8.37214011      -0.12367873       0.99154518      -0.93518609
C       10.63056801      15.01266071       7.34524308       0.22374027       0.23101662      -0.20736177
C        9.21059141      14.95577902       6.69614527      -0.23645950       0.52784816       0.16531564
C        8.13100408      15.53830971       7.59582889      -0.27870252      -0.24377254       0.43295712
C        8.95847453      13.42760626       6.40472404      -1.14132760       0.36463128       0.50868155
O        9.61480165      12.85923541       5.63052460      -0.54518421       0.06304579       0.52735654
O        7.96600225      12.90108530       7.16047208      -0.24349872       0.08830919       0.66439124
C        7.81255379      11.45437634       7.06118405       0.01335464      -0.65883385       0.16588819
C        9.23189667      15.72397989       5.34422298      -0.16674320      -0.53120310      -0.20909671
H       17.41218550      11.36267723       9.45598154       0.08732659      -0.09339455       0.04127362
H       15.95143104      11.04955272       8.42753386      -0.07311065       0.05616188       0.01470638
H       16.38502753       8.85972961       9.79297653      -0.03614514       0.04835123       0.10302631
H       16.44174129       9.89803036      11.18575665      -0.15493488       0.01445238      -0.01798771
H       14.15328234       9.55324685       8.22807579       0.17833965      -0.04562978       0.01870848
H       12.58619537       9.80199728       9.19200610      -0.23173961      -0.06442743       0.08583007
H       13.87586082       6.54015947      12.84931422       0.02966264       0.12552410      -0.07458297
H       13.91938484       7.59915903      14.27618398      -0.00572788      -0.07682760       0.09034811
H       15.42408322       6.90842844      13.60229296      -0.14014325       0.23599534      -0.01267463
H       14.29823246      11.74112350      10.93315028       0.11825224       0.02862337       0.05769876
H       14.38269756      10.74053048      12.37748798      -0.10107064       0.01478627       0.02510776
H       12.03982450       9.46669956      12.74132646       0.07753307      -0.05163831      -0.01219348
H       10.69709894      10.18654194      12.21213684       0.13331064      -0.09585075       0.20941709
H       11.58622936      10.78775575      15.60438588       0.04457949       0.10895822      -0.04873722
H       12.28090325      11.82500296       9.56671833       0.21472609       0.06984201       0.09611482
H       12.48418954      13.05219807      10.74459598      -0.02760315      -0.05114422      -0.04435689
H       10.04314895      12.46155809      12.53897723       0.07613305       0.05300299       0.08201335
H       10.71878399      13.91730562      12.02762143       0.14074968      -0.10412149      -0.08298813
H        8.98479398      13.58844238      11.71732365       0.04918791       0.00953661       0.05657251
H        8.58093407       9.09739249      10.07008550       0.07101431       0.04098508      -0.14289134
H        7.76980946       9.34012016      11.60409101       0.21722240      -0.11872458       0.16858204
H        7.03682693      10.04359341      10.16045030      -0.14898516       0.03059750      -0.01431238
H        9.08255046      13.42885771       9.04413003       0.02861198      -0.06291109       0.09304416
H       10.43393421      12.57063902       8.33121555       0.12322779       0.00786316      -0.01206019
H        9.88847169      15.44169505      10.62257108       0.02065890      -0.18231600       0.01478996
H       10.63335555      16.60504028       9.51681596      -0.22576086       0.04490351       0.19200662
H       14.88409671      14.37104712       8.32924345      -0.04131271       0.00679886      -0.00705770
H       14.61936096      12.82646907       7.50099388       0.05810906       0.14038532      -0.15488981
H       14.69000935      12.88349939       9.25593536      -0.18052187      -0.07094802      -0.14435255
H       10.97315210      16.00837684       7.12716422      -0.00745385       0.10514659       0.01548615
H       11.20483312      14.26712367       6.81328145       0.08171408       0.10689440      -0.16753833
H        8.60163212      16.50586235       7.52215072       0.04071609      -0.09102609      -0.02527309
H        7.79551829      11.08489640       8.07034504      -0.02813167       0.20802848      -0.13653257
H        8.65738801      11.04837742       6.50668786       0.00809616      -0.34901093       0.23784694
H        6.90614156      11.09617422       6.56295509      -0.04748969      -0.04142495      -0.00653368
H       10.07239823      15.38650989       4.74343587      -0.03376381      -0.11642372       0.22194576
H        8.32404725      15.57416027       4.71335480      -0.24071440       0.00000417       0.03576715
H        9.37355928      16.80825713       5.46679034      -0.15910595      -0.05106029      -0.15335084
C        3.27075396       6.00191243      15.28924144      -0.32504369       0.41395602      -0.28702213
C        3.26438027       7.24638150      15.63146539       1.01637423       0.38710440      -0.86802256
C        3.40556499       8.38626302      14.59603886      -0.68900465      -0.45316103       0.75151679
C        2.35473316       9.47059024      14.86125706      -0.05584076       0.02693790      -0.54550840
C        3.33366716       7.80860674      13.14408566      -1.30412064       0.33812105       0.02312434
O        2.52528320       8.19428999      12.35036932       0.25639158       0.11373151       0.49480555
O        4.22033504       6.88904709      12.88475191      -0.06728406      -0.37854867       0.61976719
C        4.35967630       6.50879843      11.36521880       0.07342864       0.49377052      -0.40301150
C        4.77856786       8.94266345      14.96908007       0.48957296       0.87692455      -0.03750145
C        5.22133619      10.25515622      14.19029664      -0.97686034      -0.38045346       0.89366054
C        5.20118298      10.04504100      12.64405698      -0.16103092      -0.60969718       0.70400523
C        6.69190159      10.23728117      14.70531755      -0.70205199       0.24068314       0.69711984
O        7.00164945      10.74883573      15.75903519       0.43991844       0.15847478      -0.91446819
O        7.49657247       9.37533294      14.05224959      -0.09191763      -1.14520345       0.90831196
C        8.86350921       9.45559061      14.28213773      -0.99448193       0.31163071      -0.40311011
C        4.48664601      11.49973453      14.85059264       1.01839830      -0.60392993       1.47997307
C        4.90491598      12.94470589      14.41336552      -0.28808104       1.08077078      -1.05542100
C        4.32084547      13.98486934      15.34781612       0.57899392       0.17117147      -0.60888348
C        6.37531179      13.09878701      14.20393013       0.55348436      -0.19097446      -0.93735315
O        6.92231066      12.83223997      13.18067689      -0.55240737       0.47229716      -0.25852998
O        7.15925755      13.58167941      15.28592470      -0.41536277      -0.85099253      -0.11402262
C        8.42292698      13.61748943      15.21001859      -0.98408529      -0.23538709       0.02937333
C        4.38212080      13.15951295      12.88723045      -0.26440464      -0.43514103       1.19314773
C        2.95460410      13.71984716      12.70853522      -1.14868866       1.33883514      -0.50841769
C        1.64512847      13.06110591      12.95072428       0.29141989       0.32670188      -0.63656782
C        2.81092296      15.21356353      13.03962956       0.26885090       0.24973077       0.61361315
O        3.60121760      16.05122776      13.22137076       0.36890671       0.07927323       0.30068482
O        1.50274919      15.44409265      13.06905950       1.21457710      -1.37592725       1.18900981
C        0.88850864      16.31339491      13.71151674      -1.20633771       0.34412262      -0.24148375
C        2.02292528      13.42306649      11.58576368       1.30929244      -0.80613927       0.15221770
C        2.21372204      12.40696990      10.33515142       1.03805460      -1.13509404      -1.61548595
C        1.48462503      11.20824107      10.70263707       0.45091612       0.06973480       0.81646908
C        3.65831833      12.29079165       9.94676689      -0.15888596       0.32860505      -0.43405981
O        4.18305911      11.27280992       9.50173423      -0.59701455      -1.23050931       1.05985469
O        4.31956397      13.45662846      10.08993437      -0.93389017       0.72335011      -1.28958674
C        5.64763440      13.51117826       9.46046421       0.34395160       0.26654155       1.43942589
C        1.56116222      12.90185541       9.01923296      -0.66660741      -0.62753568       0.47977499
H        3.48173858       5.31676546      15.99305540       0.02532127      -0.20426762       0.04689704
H        3.19611450       7.52174409      16.69571342      -0.07002527      -0.09459671      -0.06248503
H        2.25534142      10.29391515      14.11580560      -0.15340914      -0.17709721       0.03015471
H        2.50322555       9.93851360      15.81355626      -0.01839722      -0.06688834       0.06617115
H        1.38586360       8.97927438      14.90793037      -0.06713777       0.16617109       0.19848109
H        4.83423895       7.29108539      10.82590553      -0.01949696      -0.00175186      -0.04069227
H        3.37818947       6.26902666      10.97205289       0.02557355      -0.00968479       0.10563226
H        5.02609357       5.67784755      11.37866609       0.12785501       0.19614028      -0.06533893
H        5.48699731       8.14204351      14.69225848      -0.04781925       0.06477516       0.05620087
H        4.85959786       9.16381434      16.01177690       0.13679154       0.21305575       0.04676376
H        5.95249563      10.75198300      12.28345154      -0.15339877       0.02657685       0.10678324
H        5.41604508       8.98934858      12.38721563      -0.04285039      -0.25071877       0.10782318
H        4.21724839      10.27712941      12.19290110       0.09343925       0.24554101       0.09264030
H        9.10713871       9.42280115      15.34386046      -0.07582000       0.03501759       0.05350313
H        9.35451161       8.63061966      13.76789362      -0.12661580       0.10228736       0.06371345
H        9.26029726      10.42645615      13.89332002       0.01232256      -0.03873828      -0.06266328
H        3.44154404      11.50641706      14.66842980       0.14622436       0.15046828       0.03362309
H        4.58639691      11.44791123      15.92200112       0.02346616      -0.05676219       0.02977356
H        4.76310755      13.61334957      16.27409816       0.03269803       0.17882825      -0.08965843
H        8.92915665      14.50163452      14.90255778      -0.08569943      -0.04373506      -0.14877049
H        8.86209439      12.74389810      15.69354705      -0.10971309      -0.05748256       0.01195421
H        4.28848396      12.26227529      12.32719635       0.05530252      -0.10184461      -0.03221248
H        5.06688230      13.82267192      12.37960889      -0.10687548       0.34366604       0.01027526
H        1.77282947      12.00450250      13.20258032      -0.23876727       0.22731265      -0.21774243
H        0.78727405      13.50064784      13.53111116       0.36473616       0.11828437       0.04963901
H        1.21574212      16.61210837      14.70535127       0.01113467      -0.06140590      -0.10225381
H       25.02557896      16.49722208      13.41109063       0.05105546       0.20702026      -0.08429349
H        1.56415574      14.35641196      11.25977703       0.57249170       0.05459536      -0.14041332
H        1.59544822      10.34812954      10.16495110       0.14212878      -0.06216534       0.21634868
H        0.70689126      11.23902858      11.41643439       0.02741497      -0.13583547       0.09950349
H        5.58613615      13.46593186       8.38259107       0.05162952      -0.08101394       0.08387058
H        5.92913071      14.54711445       9.61204064       0.08253709       0.00069751      -0.02347775
H        6.38242417      12.86102194       9.94598378       0.22733083       0.01593790       0.08087950
H        0.51068638      12.98680472       8.95488417      -0.21157403       0.12790789       0.10595312
H        1.99644715      13.85329476       8.70744400       0.08443630      -0.08125824       0.08805902
H        1.71651857      12.16418277       8.21983058      -0.13522389       0.11168931      -0.07284531
C        6.56965222       9.74439984      24.61300819      -0.06480237       1.42335870       0.97703748
C        7.97317056      10.12243065      24.70244841      -0.12126077      -0.09959081      -0.07770485
C        8.58993434      11.39714953      24.06530758       0.59552361      -0.42118182       0.42830958
C        7.71234197      12.50694851      23.40732671       0.45355090       0.23657057      -0.96498950
C        9.87669196      11.20023400      23.42071771       0.07724145       0.61554202      -0.83082881
O       10.49628251      12.12959797      22.95484489       0.62310627      -0.63491313       0.24239282
O       10.22794391       9.85855652      23.26978760       0.17540238       0.37141209      -0.64022192
C       11.37748699       9.65840324      22.53743283       0.17617466      -1.15086761      -0.06502144
C        8.51097014      12.82915883      24.64456400       0.32482865       1.10871788       0.72610400
C        7.76320585      13.36611782      25.85274888      -0.95386820       0.03727449       0.84890443
C        6.80982778      12.37284394      26.47872611      -0.65076046      -0.67818629      -0.63580209
C        6.84406080      14.47325550      25.26120932       0.98554242      -0.37482993      -0.15571317
O        5.68527270      14.47910592      25.04664312       1.04939709       0.23541081      -0.05561987
O        7.63145627      15.50958927      24.95000821       0.17846136      -0.40703656      -0.48775430
C        7.00734378      16.46862436      24.02925549       0.45386544       0.08403045       0.38818787
C        8.76602337      13.95888575      26.88541350      -0.13607458       0.10589142       0.51426369
C        8.22504327      14.50158470      28.24303758      -0.95778456       1.00750999       0.57313112
C        6.97417213      15.46592010      27.97871365      -0.93991159       0.22175347      -0.36473479
C        7.85760391      13.30552908      29.13564472      -0.01884838      -0.38033061       0.31036771
O        6.88739676      13.07722531      29.83770093      -0.26157252       0.08516975       1.25141339
O        8.79899408      12.36677706      28.95057791       0.22033001      -0.14585002       0.01105369
C        8.93324649      11.34290731      29.82534891      -0.24179624       0.08315177       0.49134931
C        9.20860869      15.52735314      28.91228239      -0.64683308      -0.59935923      -0.95765064
C       10.55075128      15.12183122      29.40769164       0.60552847       0.06249776       0.23413720
C       11.46614294      14.42953530      28.41377441       0.09333663       0.94981389       0.04934794
C       10.47846490      14.37109042      30.73849544      -0.11199560       0.01511846       0.60942607
O        9.52884422      14.24144361      31.43882020       0.03679438      -0.39831168      -0.32318451
O       11.61308570      13.75148598      31.02549257      -1.25050262      -0.06459009       0.49597839
C       11.90376652      13.20208083      32.32145322       1.17737695       0.29677171       0.00002614
C       11.08333269      16.50632040      29.77042712       0.25944417      -0.31084674      -0.75348115
C       12.30040553      16.86296754      30.57576017      -0.52940741       0.48153406      -0.05473326
C       11.79288590      17.09279414      31.95439872      -0.23814972      -0.22718143      -0.11824036
C       12.78391700      18.27096072      30.10585783      -0.72331057      -0.20926978       1.02665670
O       12.13177141      19.05132892      29.40402918      -0.07598333      -0.32348044      -0.16776897
O       14.01905683      18.49019448      30.51862359      -0.04280874       0.03462867      -0.05698647
C       14.57424523      19.71887863      30.12892348      -0.30045400      -0.51464880       0.47626724
C       13.51138841      15.97389052      30.61050210      -0.03189383       0.17182247      -0.45966222
H        5.94082052      10.25956912      23.91698342      -0.19840088      -0.00551697       0.04649707
H        6.18975994       8.74491568      24.91174441       0.10264589       0.19482717       0.04452168
H        8.33145176      10.11264930      25.72505957       0.09674658       0.17019357      -0.10667848
H        8.52931517       9.31573585      24.32063376       0.24609515      -0.51226015      -0.10205982
H        7.97951270      12.96698996      22.45758836       0.24400435      -0.01436172       0.11887197
H        6.64540803      12.42361921      23.52181644       0.17816321      -0.03542683      -0.07902589
H       11.54594973       8.58813690      22.48183551      -0.14957481      -0.15461753      -0.04139444
H       12.07705007      10.33835638      22.17233187       0.04538125      -0.03781725      -0.08059474
H        9.35615870      13.41023118      24.34422702       0.07384577       0.16749650       0.35762039
H        6.07400651      12.08208884      25.73035727      -0.09778056      -0.07294956      -0.00405162
H        6.36675099      12.78134516      27.40109342      -0.01331379       0.15214909      -0.00749509
H        7.29178171      11.48802833      26.85670036      -0.16121287       0.14384789      -0.02253890
H        6.04310339      16.76627546      24.38072053       0.04506565      -0.34615618       0.08127617
H        7.66486523      17.33267549      24.04100724       0.07723668       0.02474115      -0.03124671
H        6.93051857      16.08053353      23.00552874       0.27481174      -0.28420043      -0.00219104
H        9.19078999      14.77132240      26.34815798       0.09967508       0.08389159       0.01442241
H        9.54997209      13.26932712      27.09224977       0.04605870      -0.09657146      -0.15657716
H        6.49801027      15.74940680      28.92174042      -0.06215593       0.05183272      -0.07255217
H        6.20199694      15.11188247      27.30490086       0.05994345      -0.03673369      -0.07085929
H        7.28823095      16.44187647      27.57590579       0.05622392      -0.06122612       0.19259620
H        9.41783731      10.71696309      28.96634093       0.06850174      -0.05915806      -0.20470916
H        8.64494997      15.89923691      29.76342017      -0.21383740       0.04889014      -0.08698856
H        9.23358627      16.20728658      28.10282205       0.01998564      -0.08934227      -0.08491764
H       11.46524483      14.94370419      27.44229354       0.17413332       0.25249457       0.06808699
H       11.16471099      13.40773243      28.20421617      -0.04798290      -0.00725202      -0.05538511
H       12.48394255      14.41486597      28.73595394       0.08352769      -0.03637616       0.03812212
H       11.02024030      13.11393183      32.95868403      -0.00214784       0.15896353      -0.07938932
H       12.61280354      13.88440811      32.83568947       0.09189539       0.13428897       0.06832773
H       12.38607473      12.25254864      32.15301078       0.03844824       0.04147230       0.08139630
H       10.33964315      17.26837915      29.93951568       0.02570648      -0.06071590       0.17816142
H       11.14613666      18.02649713      31.84797742      -0.26057744      -0.09719090      -0.04793143
H       15.55333299      19.78403542      30.57683112      -0.05185477      -0.00951792      -0.04940419
H       14.52275963      19.82785237      29.00737137      -0.29619696       0.14567351      -0.11579297
H       13.25372091      14.97245409      30.90489529      -0.10248361      -0.03409003      -0.03572893
H       13.97535703      15.92113831      29.62109305      -0.14971681      -0.05187432      -0.17621621
H       14.19078979      16.51383444      31.29683158      -0.18677540      -0.02498356       0.07131302
C        0.35197160       9.50615181      65.10700206      -0.24531397      -0.04379066      -0.56240783
C        0.42187063       9.90513258      63.63396155      -0.47613118       1.01819236       0.08477473
C        1.76411219      10.44821794      63.04321946      -0.58913667       0.45307982       0.38547691
C        2.88831032       9.40390677      63.21553724       1.51297187      -0.31856290      -0.02927952
C        2.12800709      11.61988196      63.81937642      -0.51964803      -0.49984764       1.27404548
O        3.13959956      12.00290536      64.30825518       1.13592864       0.27272090       0.22050425
O        0.94790873      12.41540619      63.99511540       0.10008435      -0.08126137       0.24891835
C        1.05789851      13.43537316      64.69176917       0.05023421       0.37611210      -0.42332610
C        1.53677032      10.86871324      61.58951750      -0.27030569      -0.00423218      -0.38454106
C        0.78780612      10.13110442      60.51317183      -0.26110324      -0.22914753      -0.28082454
C       24.47110251       9.76596614      60.82602189       0.60407265      -0.07979478       1.01123420
C        1.69460539       8.99018963      60.11530194       0.38628826      -0.87788274      -0.10181051
O        2.91633772       9.01427924      60.10205581       0.97591301       0.09727682       0.34166657
O        1.07076816       7.93147461      59.55707989      -1.37437282      -0.04799782       0.02713423
C        1.64267223       6.83987632      58.82133158       1.17708196       1.27548055       0.57376741
C        0.95779899      11.06216235      59.23231961       0.37068876      -0.60784248       0.03992028
C        0.39923573      12.49105271      59.24541089       0.42414081      -0.22878231       0.23882793
C       25.00770698      12.87503250      57.85598917      -0.47681786       0.50534234       0.43600966
C       24.30258333      12.54450161      60.09592609      -0.22994471      -0.85835547       0.02855692
O       23.26679863      12.02629030      59.78586912      -0.54955355       0.38370309       0.04079345
O       24.38052266      13.18360906      61.27107503       0.85593232      -0.97756059      -0.33363221
C       23.27729883      12.95152358      62.15691376       0.65001120      -0.90506426      -0.38436137
C        1.47539856      13.59045230      59.62392147      -0.78131581      -0.01485421      -0.31046673
C        2.84757850      13.89177578      58.84866145       0.07859457       0.16738598       0.24135422
C        3.96018475      13.17082873      59.53646340      -1.36796654      -1.02479611      -0.15120047
C        2.81576054      13.28999558      57.44183204      -0.67114338       0.34026356       0.44519665
O        2.82123084      13.88696141      56.38160692      -0.71877844       0.20555479       0.55156511
O        2.72344730      11.93576981      57.41216939      -0.04834964       0.64989835      -0.77451396
C        2.79491244      11.31757315      56.16853447       0.59145501      -0.47300142      -0.56752181
C        2.96915762      15.36151578      58.49613335       0.13170257      -0.73743364      -0.53687606
C        3.89921895      16.44021734      59.16716039      -0.58168819      -0.65391082      -0.47313588
C        4.87504284      16.09524974      60.23352084      -0.77514463      -0.23649431      -0.16571837
C        3.23533550      17.76912341      59.24352912       0.05231841       0.38299753       1.14265149
O        2.62495436      18.41269515      58.45268921       0.50985229      -0.14467687      -0.30086038
O        3.34726400      18.33754550      60.49565302      -0.45354649       0.54038157       0.20648948
C        3.63867970      19.64966122      60.51388285      -0.18451209       0.98770005       0.34723510
C        4.16254406      16.03988306      57.79134969       0.79717129       0.10428071       0.01600937
H        0.94319401       8.61081534      65.45269224       0.17047113       0.19519009      -0.16759322
H       24.49102621       9.34335471      65.40492697       0.23307734      -0.24559159      -0.12713922
H        0.55905663      10.38591881      65.79045705      -0.11985069       0.11143633       0.03069101
H        0.09294209       9.03751604      63.09000833       0.10067824      -0.02967152      -0.02518764
H       24.83463417      10.68777425      63.61487645      -0.14158335      -0.10276883       0.06762877
H        3.88717216       9.65231564      62.79254976       0.22992101       0.02967849      -0.02296952
H        2.54905662       8.44981479      62.79174471       0.02952739      -0.10607282       0.28318688
H        3.00777982       9.16712803      64.28866320      -0.18922255      -0.28770400       0.02345437
H        0.19535221      14.12405491      64.65458779       0.04078548      -0.28107582      -0.00492080
H        1.96412777      13.73871299      65.15255516       0.04892526      -0.05227516       0.18550104
H        1.10403702      11.94489227      61.69359044      -0.57858073       0.27548897      -0.07831666
H        2.53952532      11.00839344      61.12209299      -0.35542075      -0.07906750       0.01810523
H       24.02329147      10.35059890      61.58051155       0.16500945      -0.05396445       0.04286874
H       23.90941356       9.66146088      59.89061868      -0.07572866       0.08146620       0.05431986
H       24.54870276       8.71786501      61.14421497      -0.15998040      -0.32524053      -0.03472298
H        0.59522733       6.53016960      58.49791941      -0.03070296       0.15072559       0.15498519
H        0.43251081      10.60205915      58.37992871      -0.08968317      -0.19000344       0.18729885
H        1.96782857      11.08785341      59.00500665       0.33797252      -0.10017442      -0.14985441
H       24.56731080      13.89801807      57.73434984      -0.05793915       0.09390982      -0.00936060
H        0.64717053      12.73704175      57.12741319      -0.18238329       0.05937652      -0.02555341
H       24.12986377      12.24082054      57.53963822       0.14088195      -0.24462711       0.29268347
H       22.37213490      13.54423448      61.89798498       0.41677064       0.24415810      -0.03825171
H       22.96107814      11.91986368      62.24170619       0.19792170       0.03664869      -0.20083005
H       23.73584941      13.26895047      63.10072076       0.02159181      -0.04312090      -0.18778228
H        0.85448758      14.47889130      59.54829107       0.14884531       0.07452847       0.09541732
H        1.72329113      13.46447870      60.67240230       0.00821102       0.12970516      -0.14477255
H        4.88793119      13.37574440      59.05866979      -0.05731789       0.31457267       0.38649351
H        4.05810351      13.30435614      60.61543365      -0.22069901      -0.19938352       0.05000403
H        2.82538960      10.26444118      56.44427934       0.02511298       0.09827526       0.04616823
H        3.62165119      11.62828893      55.50733116       0.19905944       0.11598730       0.17575260
H        1.82225245      11.50215153      55.64224327      -0.04573658       0.09543007       0.17196462
H        2.03810636      15.79495672      58.19698301      -0.21587561       0.00550309      -0.00066916
H        5.21934590      16.97688071      60.84128309      -0.21125671       0.20212184      -0.20619621
H        5.82929774      15.70529756      59.75952255       0.22441578       0.25524805       0.08481510
H        4.47910254      15.31438773      60.84483684      -0.26742685       0.19673503      -0.30226748
H        3.62590486      19.94073027      61.54055176       0.17355937      -0.26115473       0.24677417
H        4.12730123      20.03311249      59.65852284      -0.12764455      -0.08836664       0.07119400
H        4.11137983      16.76250815      57.00013879      -0.14548221      -0.03989587      -0.30691117
H        5.08695031      15.48185476      57.61615990       0.04318788      -0.09138304       0.14941029
C        4.60176426       5.38931620      61.22773641      -0.90705337       0.23309172       0.28864415
C        3.56547644       5.94902742      62.22479317      -0.76729850      -0.25524856      -0.37874475
C        2.81973830       4.89811148      63.09319394      -0.57672720      -0.19953884       0.82769712
C        1.70424103       4.17504976      62.32365680       0.04493964      -0.26931375       0.11014189
C        2.22543187       5.69391292      64.23225468       0.32172542       0.10524653      -0.25611463
O        1.05006242       5.99367446      64.42411855      -0.07474447      -0.72387395       0.88419145
O        3.17274917       6.17308579      65.06337176      -0.58343139      -0.59187365      -0.65285158
C        2.86546382       6.61322434      66.28446370       0.76655686      -1.22811933      -0.32375716
C        3.82375726       3.89207574      63.57606296      -0.50411000       0.03146464       0.40739457
C        3.32184621       2.56015240      64.39622655       0.64391056       0.25964864      -0.49997526
C        2.49553559       2.95697639      65.64040106      -0.39842678      -0.11420668       0.56993656
C        2.57905057       1.74837385      63.43594660       0.42678780       0.46235429      -0.90164561
O        1.54244433       1.13844727      63.68287123       0.97428019       0.14281830      -0.21379569
O        3.12302730       1.74827391      62.14167052      -0.48609169      -0.92726607      -0.29595355
C        2.55347244       1.02852736      61.23266935      -0.61534890       0.56128440       1.11504324
C        4.45418136       1.60212851      64.79097347      -0.04038339       0.49053578      -0.63300235
C        5.64890697       0.76415032      64.50323507      -0.19342550      -0.13001182      -0.33941215
C        6.27173367       0.24621111      65.79022220      -0.13537918      -1.06193051      -0.18559919
C        6.70622684       1.69440208      63.88381543      -0.46278204       0.29929229       0.42195855
O        7.59042994       2.26592797      64.43215466      -0.72095857      -0.25969194       0.57159204
O        6.62470278       1.78500077      62.50450244       0.28476542      -0.07104297      -0.38390499
C        7.73087612       2.45238846      61.90034235       1.02102838       0.24373748      -0.61549123
C        5.25094473      24.75341512      63.59419601       0.82424398       0.44268121       0.55164263
C        6.18038244      23.52599210      63.33385820       0.11742559      -0.09412797       0.65634439
C        6.20796535      22.52443237      64.46790903       0.00501147      -0.43856305       0.23804101
C        5.46228233      22.83688272      62.18657174      -0.68630781       0.60832113       0.21727258
O        5.21792052      21.67607660      62.25823012      -0.36767309       0.16125306       0.90771315
O        4.99138264      23.55794407      61.16677350      -0.25843092      -0.25094780       1.26966648
C        4.36875024      22.84262425      60.07646766      -0.29022410       0.63118535       0.06333692
C        7.63234865      23.96588270      63.02238997       0.30794372      -0.45911631      -0.15956472
C        8.68724727      23.03559758      62.43720333      -0.30039368       1.50417765      -0.13337469
C        8.22721150      22.35867350      61.12966240       0.23019935       0.02820209       0.32532295
C        9.10572587      21.90915460      63.42588072       0.82525395       0.95862573       0.19107644
O        9.16855409      20.78887392      63.08519023       0.18926772      -0.23758426      -0.31766206
O        9.60569470      22.38017395      64.60701732       0.75808686       1.00845109       0.66443216
C       10.15997070      21.33624117      65.45771919      -0.60252591      -0.40114310       0.08387326
C        9.83297546      23.98179160      62.17902245      -0.36500407      -0.07583371      -0.69129644
H        5.54669905       5.09198343      61.72552065      -0.09497086       0.01587235       0.00555767
H        4.19153976       4.51644803      60.75330182      -0.13505531      -0.15335251       0.23405013
H        4.80557772       6.11196789      60.38776384       0.12244509      -0.01549392       0.16035529
H        4.16437075       6.53031824      62.88752297       0.04533698      -0.13120238      -0.08615221
H        2.85263369       6.66654270      61.79317757       0.04121827       0.16878999       0.00806173
H        0.98150479       4.92842783      62.14066013       0.07579296       0.07417050       0.15779250
H        2.16714488       4.09960176      61.31684642      -0.16461650       0.32548547       0.02040323
H        3.77038098       7.07881270      66.67539605      -0.05481762       0.14749038       0.00269539
H        2.18285919       5.98920874      66.81622975      -0.16241005       0.19242280      -0.07458786
H        4.63276885       4.38307451      64.06490431       0.16844390      -0.04838336      -0.17303986
H        4.26172120       3.38431085      62.70895659       0.06901838      -0.04864972       0.06485330
H        3.11673745       3.63547254      66.22891468      -0.00656769      -0.13055579       0.03528792
H        2.16411399       2.07217622      66.17790102       0.09270464      -0.07214124      -0.01228317
H        1.64151431       3.52299565      65.28544190      -0.05155105      -0.19885619      -0.15780215
H        2.17602168       0.13380581      61.65068833       0.16357093       0.11599437      -0.20626925
H        2.22078505       1.39457611      60.22591063      -0.07809227      -0.03238671      -0.03095921
H        5.44586732      24.86659368      66.33025978       0.21124169      -0.06537362       0.11802323
H        6.59133631       1.09252714      66.42880852       0.19711376       0.19516110       0.17123965
H        7.34720149       2.86187617      60.95873616      -0.04969682      -0.19266974      -0.12608049
H        8.60408663       1.82020891      61.77454334       0.08096072       0.05127787      -0.14909050
H        8.01464717       3.33759072      62.40983064       0.15838401       0.09243470      -0.13805579
H        5.00329840       0.06137091      62.63609715      -0.04626977       0.11305450       0.07458474
H        4.31833791      24.26191183      63.95911315       0.12903683      -0.02052895      -0.13625516
H        5.11022417      22.36175334      64.62355653      -0.00106972      -0.02944429      -0.08058635
H        6.60141848      23.05381677      65.33431228      -0.08637595      -0.04824523       0.16415621
H        6.77400379      21.61492321      64.35007147      -0.12587531      -0.06440817      -0.06657763
H        3.75032231      23.59711473      59.62328560       0.13938977       0.37133563      -0.04832292
H        5.14727475      22.47913493      59.41504234      -0.04836283       0.20270987       0.17845214
H        3.69010246      22.09142027      60.47310233       0.14881469      -0.07514739      -0.00831835
H        7.58806005      24.83343859      62.37474408      -0.02187060       0.16673196       0.07032861
H        8.07299431      24.34498909      63.98223519      -0.04971056      -0.03373033       0.22314032
H        7.51874538      21.57430234      61.34931906      -0.01684506       0.01625847      -0.03034439
H        7.73096201      23.03639476      60.44021707       0.09949484       0.09531870      -0.03059536
H        9.11054340      21.83568550      60.73663646       0.08135361       0.04242482      -0.15072733
H       10.27024633      21.74666565      66.46590316       0.11516649      -0.06677616       0.02312705
H        9.52061691      20.47212709      65.49134723       0.00303230      -0.09491260       0.03381926
H       11.12598328      21.01159714      65.04081251       0.04232712      -0.03493201       0.31225045
H        9.50652664      24.64016500      61.38846770      -0.16392756      -0.04193139       0.10508980
H        9.93546133      24.53101535      63.09851158      -0.00022382      -0.17666423      -0.02074566
H       10.68262235      23.40263971      61.90567618      -0.12713443      -0.02594264       0.15802607
C        0.32519213       3.25485707       6.11533647      -0.22761926       0.67538404       0.03936410
C        0.63852673       2.33252312       7.24059001      -0.52646100       0.19572676      -0.59358861
C        1.96677723       1.55190467       7.13602041       0.72918296       0.54550286       0.85092422
C        1.97592044       0.94734149       5.69469326      -0.78803529       0.86607714      -0.61734977
C        3.21548193       2.43873738       7.25252407       0.21813754      -0.10686370      -0.40925408
O        3.24426236       3.64212960       7.06279688      -0.64110144       1.00902998       0.38596831
O        4.28812386       1.69770228       7.54098951      -1.33805520      -0.35016306       0.57858125
C        5.56718801       2.35401498       7.54065277       1.18952009      -0.24832179      -0.20514383
C        2.10521908       0.35810646       8.12644923      -0.13435449      -0.44201509       0.54779953
C        2.04890737       0.60332502       9.68994145       0.39784992       0.40746248      -0.18081405
C        2.48253618       1.96705868      10.21149688      -0.31266560       0.56635057       0.01385222
C        0.61531221       0.43118802      10.21996374       1.22883318       1.23875248      -0.99027314
O       24.81295694       0.56057155       9.51066977      -0.03150162       0.06156432       0.02909684
O        0.53155034       0.36953014      11.53658385      -0.32769736      -0.16301430      -0.17737373
C       24.37822736       0.55108413      12.02808181       0.46891554       1.16710768       0.58305215
C        3.12963845      24.70973984      10.31651207       0.02561629       0.97569266       0.31012781
C        2.82993390      23.16838554      10.23713858       0.71671777      -0.78375283      -0.19366150
C        1.68119881      22.89136310      11.17718273      -0.86176156       0.44080329      -0.21826330
C        4.08605121      22.64454049      10.70973527       0.89182468       0.49538234       0.50714347
O        5.10906964      22.82822137      10.08168938       0.93859502      -0.98490691       0.88078470
O        4.10343698      21.84036985      11.82294516       0.26642459      -0.49346290       0.57923122
C        5.25111219      21.52529047      12.32649592      -0.84303810      -0.14088638       0.40320233
C        2.55146212      22.55341376       8.80055487       0.28905082      -0.70382126      -0.30425338
C        2.77290321      21.04312878       8.57852249      -0.63758261       0.03367100       1.20366342
C        4.25923339      20.72229649       8.22547520       0.45502406      -1.01818150       0.63074608
C        1.90980051      20.74735600       7.36568404      -0.54481891      -0.06515170       0.70676968
O        0.69498591      20.71972231       7.39910934      -0.34679178      -0.13814279       1.26399291
O        2.54955382      20.78934299       6.21752968      -1.26630543      -0.75622860       0.38995147
C        1.70920042      20.77412064       5.05832352       0.12742116      -0.94448114       1.21719304
C        2.31540369      20.09335539       9.66430865       0.97346857      -0.69608945      -0.60233775
C        2.54508488      18.59340582       9.43298350       0.53001624      -0.17530881      -0.26698231
C        1.56656513      17.86615954      10.36347395       0.33651966      -0.19825747       1.52131194
C        3.87393872      18.32682562      10.15917210      -1.36562276      -0.11511271       0.15440394
O        4.15976798      18.66462213      11.30962449       0.07573456       0.03188735      -0.05515365
O        4.78980003      17.67703477       9.41232868      -0.03787421      -0.04117427       0.38419750
C        5.98251435      17.31938281      10.12249518       0.53404635       0.02734176       0.95029951
C        2.60505893      17.98563424       8.04228093      -0.16880498      -0.06756963      -0.69624794
H        0.10946366       2.82851483       5.21684874      -0.18015658       0.31675396      -0.03028985
H       24.60239280       3.81822129       6.38268239      -0.18138741      -0.16881919      -0.08944737
H        1.16778108       3.93288244       5.94962086       0.10280321       0.21056981       0.01188532
H       25.08789346       1.48161917       7.20973553       0.02299286      -0.04369298      -0.00235124
H        0.51815752       2.82119464       8.15121323      -0.06153966       0.18664663      -0.08573966
H        1.21631048       0.09945320       5.72959508       0.18796748       0.06296862       0.05627030
H        2.91123577       0.32961479       5.76247592       0.10157303       0.03489857      -0.08412720
H        6.20947853       1.56590256       7.94043808      -0.00927338       0.00795522       0.07715498
H        5.50672267       3.18462162       8.25386272       0.07338631       0.01082601      -0.09781945
H        5.85911288       2.66936800       6.55303440      -0.08196861      -0.04478990      -0.07275349
H        1.23584138      24.83878221       7.99703310      -0.09821301      -0.11634649       0.15061491
H        2.94370660      24.87206974       7.83638323      -0.11740297       0.06088311       0.08530060
H        3.47111194       2.27553474      10.11221315       0.02336777       0.08310568      -0.19874760
H        1.84477247       2.74728271       9.82076386       0.01505481       0.11043047       0.04375905
H        2.28737072       1.95273508      11.29190481      -0.07043975       0.06459925       0.03535423
H       23.94034925      24.69974172      12.23357786       0.01277712       0.13641991      -0.00662328
H       23.70732622       0.94610244      11.29192507      -0.11731712       0.01592259       0.15340677
H       24.44201731       1.20030859      12.89090429       0.18654745      -0.02831918      -0.03922371
H        3.34453823      24.84560671      11.38543139       0.16869736       0.20543125       0.02290539
H        4.06807305      24.92919959       9.84352993       0.06192312      -0.06990943       0.00780462
H        1.88691809      21.81498861      11.28257162      -0.21235598      -0.21320129       0.15921601
H        2.22828748      23.24646657      12.08035333       0.20330954      -0.05693502       0.03248272
H        5.17903982      20.57679269      12.81540155      -0.12397919       0.16874068       0.21828800
H        5.99599914      22.24668868      12.01496027      -0.06316868       0.04661372      -0.06736142
H        1.45649833      22.69315368       8.74276662       0.26391008       0.05671907       0.28022867
H        3.03241637      23.03216986       7.99001939      -0.29317680      -0.21157418       0.04631948
H        4.81243752      20.55370990       9.13664075       0.11189497      -0.03056310       0.02591392
H        4.37852844      19.88141178       7.53275725       0.28105935      -0.01490478      -0.00429975
H        4.67775503      21.61766296       7.79601198      -0.00092062      -0.11614211       0.11773385
H        2.35946219      21.16731249       4.27599776       0.08340811       0.16586614       0.13550242
H        1.06148723      21.65498412       5.18394458       0.20163394       0.00550539       0.02928261
H        1.26787202      20.33211618       9.84208243       0.15263470       0.03536062      -0.03952065
H        2.85213569      20.31680119      10.54942766      -0.04138846       0.04525713      -0.06023731
H        1.82587266      16.85367991      10.47733053       0.03100218       0.02092906      -0.15267101
H        0.57731637      18.02087677      10.10955993       0.45679254       0.15559176      -0.29331980
H        1.66036315      18.41149192      11.31746408      -0.17775932      -0.18443514       0.06062838
H        6.42710896      16.93104791       9.19264917      -0.45752447      -0.01907155      -0.10786702
H        1.85571941      18.51156130       7.39804115       0.02516960       0.11305315       0.18649034
H        2.32895685      16.91614648       8.09754319       0.16947560      -0.07777550       0.11204595
H        3.57663856      18.11643614       7.62873628      -0.10306123       0.01273979      -0.04872863
C       15.76661908      10.66074471      47.55727180       0.65367297      -0.54645854      -0.61645741
C       15.90755470       9.16733416      47.17465010      -0.32646420      -0.28120629      -0.66478664
C       16.25723763       9.06224739      45.69339971       0.55716430      -0.21363726       0.05015740
C       17.72382137       9.45206920      45.46760107      -0.26114503       0.34353877       0.57378843
C       15.16793786       9.87368514      44.94900317      -0.14312151       0.13928692      -0.31428683
O       13.97080705       9.63226878      45.08016791       0.09289677       0.12808521       0.48033478
O       15.65111338      10.72523438      44.04584271       0.35965648       0.72327089      -0.58533800
C       14.73876746      11.42388470      43.28898126       0.68756810       0.10332401       0.36934408
C       15.96371908       7.61930512      45.24365463      -0.40309243      -0.68630145      -0.32577829
C       15.98971468       7.12943817      43.75036711       0.10892506      -0.91326771      -0.22232342
C       16.30481185       5.61814079      44.04908014       0.17183508      -0.21597271       0.39351082
C       17.05573411       7.87161206      43.00588863       0.60737485      -1.28500173       0.71797215
O       16.91093475       8.86134442      42.32059706       0.66134935      -0.24899832       0.67336823
O       18.23931882       7.29105124      43.23204704       0.85102026      -0.37586452       0.19648534
C       19.40049794       7.87835038      42.60800096       0.47907195       0.98727054       0.63433602
C       14.55178651       7.42423354      43.15408392       0.63394109       0.52853048       0.14204247
C       14.08052148       6.59406131      41.87188756       0.65787877       0.94813952      -0.61639191
C       13.76524444       5.18670583      42.39335470      -0.30853510      -0.22348641       1.43236108
C       12.78950224       7.26405084      41.39768807      -0.07305681       0.13224569       0.13169860
O       11.87314289       6.59272095      41.07169662       1.13150735       0.19613811      -0.22032892
O       12.75305900       8.60888043      41.51184962      -0.56964240      -0.01317608      -0.81075210
C       11.46178746       9.27910695      41.23070036       0.55907935      -0.31872846      -0.23414439
C       15.05164138       6.56145322      40.64655753      -0.16754841      -0.33849895      -0.51913537
C       14.57632660       6.58528265      39.15473680       0.27119632       0.13054525       0.28474406
C       13.88833898       5.35009015      38.95566000      -0.45135236      -0.34359097      -0.97733630
C       15.87086003       6.55664026      38.34343812      -0.09506702       0.13962238       0.12056937
O       15.93751383       6.54320441      37.16241758      -0.17000085      -0.01690987       0.11256868
O       16.92249809       6.62902453      39.11959527      -0.37791764       0.06714294       0.63127216
C       18.03725009       7.17341788      38.89880776      -0.72792078       0.48637599      -0.45027390
C       13.82082723       7.79667700      38.55654965       0.19453434      -0.70236474      -0.08854206
C       14.38243583       9.24011599      38.65147673      -0.07939186      -0.60545209       0.93917722
C       15.12545190       9.66499291      39.90542013       0.06993696       0.22941523       0.56938742
C       13.12410620      10.19490810      38.51086865      -0.29798466       0.48937108      -0.26417354
O       12.21526022       9.99405272      37.74171248      -1.25077173       1.06920284       0.94944892
O       13.18048164      11.33612117      39.21565353      -0.15822795       0.30837222      -0.08699821
C       12.20653538      12.30708641      38.83618690      -0.15487158      -0.32900207       0.63232398
C       15.27539314       9.71201642      37.45539401      -0.57484456      -1.01489230      -0.20918593
H       16.27565560      10.86747069      48.48128685       0.04844340       0.05610685      -0.00212728
H       16.11970565      11.36641730      46.80754141      -0.02808697      -0.12417197      -0.16802768
H       14.72644833      10.91735085      47.74193333       0.02633624       0.03480669      -0.08882774
H       14.92136989       8.71833919      47.24627215       0.10352195      -0.07661098      -0.09001646
H       16.57093750       8.54348787      47.78944228       0.01113595       0.15940233       0.08781242
H       18.32846641       8.58929597      45.72714756      -0.13631646      -0.11450264      -0.01047566
H       17.91597892       9.65671783      44.41239723      -0.06947004       0.04186767       0.06257615
H       17.89922880      10.30798675      46.09903064       0.06462898       0.00303227      -0.15679652
H       15.31294335      12.16667918      42.78355454       0.09284469      -0.15616967      -0.20007376
H       14.31792716      10.79428578      42.50674439       0.01524837      -0.07587342      -0.09203393
H       13.97766874      11.79387651      43.93925431       0.02913913       0.45762112      -0.12195236
H       16.81420690       7.05622025      45.68286518      -0.11153111      -0.20195698      -0.07431635
H       15.02150649       7.19750989      45.61724698      -0.07022054       0.17896405      -0.01489428
H       15.52974767       5.11916505      44.60946750       0.00445493       0.02252132       0.05954282
H       16.53715602       5.09710063      43.15019477       0.29037633      -0.22370530       0.06581842
H       17.19036926       5.58464237      44.69283436       0.01240481       0.01007555       0.18858502
H       20.23149739       7.38261960      43.06473171      -0.03204552       0.15058790       0.18224068
H       19.42203140       7.78900942      41.52363216       0.12978623       0.22179111       0.06852839
H       19.41096657       8.93394256      42.88271318       0.10012239      -0.00366323      -0.00441616
H       13.82111948       7.27596871      43.89863479       0.11542982      -0.01505147      -0.05670927
H       14.58236036       8.45073734      42.81889631      -0.07637937       0.08783037       0.04168570
H       13.46643846       4.46800062      41.62890070      -0.01261319       0.01344269      -0.08592000
H       14.61108196       4.75739394      42.96064680      -0.14588329       0.16839332      -0.05891422
H       12.98939942       5.20186390      43.15350975      -0.16374404      -0.10882460       0.07102744
H       11.66127191      10.32683050      41.42630268       0.03352920      -0.01240672       0.07186185
H       11.17367756       9.15148295      40.19173860      -0.06776135      -0.08177954      -0.01721768
H       10.66969470       8.92386171      41.86305209      -0.02486136      -0.10370578       0.03549626
H       15.80043378       7.33241931      40.78848517      -0.05392709      -0.20483366      -0.25017072
H       15.62611383       5.64342691      40.72273953      -0.00612398      -0.00335013      -0.15238333
H       14.36595711       4.45228461      39.23538916       0.03290468       0.14685584      -0.08805019
H       13.04356369       5.29072249      38.30141813       0.01879938       0.08299691      -0.05499184
H       18.08374002       7.92243249      38.08687639       0.10765246       0.00361881       0.01219337
H       18.86324342       6.82573604      39.49526144      -0.13736284       0.10675342       0.32594517
H       12.84090968       7.82262082      38.98298700       0.13155254      -0.02551440       0.16878680
H       13.73929425       7.60534226      37.49965141       0.31569744       0.02397318       0.00096985
H       14.57611229       9.57387026      40.80062755      -0.05017976      -0.03870872       0.07096617
H       15.40524999      10.73483760      39.75158646       0.07042541       0.12120175       0.02812942
H       16.03038150       9.11048464      40.03649845       0.17239787       0.01121180      -0.26066465
H       12.01902823      12.36097349      37.77280921       0.07695720      -0.07241325       0.03057851
H       12.57764076      13.25696534      39.21161287       0.15630252      -0.05466258       0.00166769
H       11.29547293      12.12403236      39.41482436       0.09811825      -0.02546207       0.20469756
H       14.78467247       9.75853468      36.52213437      -0.20883825      -0.07596954       0.03882181
H       15.65368140      10.69808604      37.68927440       0.03747354      -0.05537870       0.02574304
H       16.06478992       9.00681986      37.37117083      -0.16415313      -0.06229184       0.00008082
C       16.85459842      13.74167779      58.09584555      -0.30327587      -0.76893639      -0.42870548
C       15.38150460      13.45684827      57.91495654       0.27058872      -0.81568782      -0.12632157
C       14.58402840      12.99885601      59.16904240       0.13771439       0.03424540      -0.36813893
C       15.33531392      12.18043257      60.12951206      -0.62333075      -0.21012015       0.05819097
C       13.37516422      12.15235932      58.69674707       0.23226498      -0.19165733       0.03102516
O       12.48923921      11.86237065      59.41985904      -0.19191162      -0.21981664       0.52147270
O       13.36554211      11.88170789      57.34699663       0.27361263       0.28367750       0.26780219
C       12.10035645      11.53925679      56.75090412      -0.04902963       0.46464368       0.83095719
C       14.00219325      14.13231104      59.96448950      -0.46520140       0.86157881       0.45643173
C       13.03275469      15.17259224      59.35326120      -0.03409124       0.17999340       0.09179496
C       11.98447546      14.64716182      58.28854385      -0.35373363      -0.21157320       0.05488664
C       13.84771420      16.24424618      58.68161413      -0.45884104       0.89792851      -0.50985293
O       14.81639287      16.77919924      59.14323136       0.26585838       0.72191552       0.13745467
O       13.46607466      16.50435158      57.37152021      -0.29743965      -0.44345170      -0.85639976
C       14.27356755      17.31251942      56.66241576      -0.37882581      -0.03060605       0.33008205
C       12.30907176      16.04371483      60.44147068       0.67120096       0.19835940       0.45173726
C       11.56945975      15.37941970      61.59532401      -0.04502316      -0.42899700       0.25547316
C       10.73898991      14.13047442      61.16684481       0.28066719      -0.26055723      -0.25661771
C       12.63309359      14.81645630      62.61153495      -0.19347375       0.13227402      -0.30744233
O       12.50454692      13.72175014      63.17586977      -0.17896661       0.08896835      -0.13175904
O       13.66010240      15.62088910      62.80213634       0.14906016      -0.07567717       0.88494420
C       14.75977788      15.06067421      63.59487384       0.10720964       0.36122618      -0.51433980
C       10.67483939      16.45056282      62.25241459      -0.27427444      -0.35897347       0.35455884
C        9.41225632      16.10814357      63.06641735      -0.00173767       0.94355407       0.26220570
C        9.64182350      15.19638898      64.27947548      -0.48839809      -0.78190706       0.10533714
C        8.39055015      15.55286066      62.09060050       0.31273592      -0.09168286      -0.51369239
O        8.09874118      16.02303857      61.00135094       0.26833274       0.47637779      -0.35818285
O        7.83158503      14.43236055      62.53748054       0.69086009       0.12697762       0.27459190
C        7.08786923      13.54205104      61.65589699      -1.07261652      -0.27326836       0.64648220
C        8.92397641      17.49885226      63.52169144       0.54145871       0.75289749      -0.45504491
C        7.60871765      17.56259291      64.45195273       0.70581558      -0.20749097       0.89009871
C        6.40718920      16.66404261      64.02884025       0.44233685       0.45632838      -0.25913084
C        7.94695707      17.39965648      65.90457232      -0.08608801       0.45973111       0.01730196
O        8.75837376      18.05873277      66.47472062      -0.50697370       1.10999250       0.23083197
O        7.33349848      16.31690926      66.45598872       0.72898469       0.08027985       0.29814037
C        7.59212505      16.06272606      67.82535504       0.98847233       0.55286895       0.14393629
C        7.14118807      19.02771922      64.35495402      -0.01976889       0.00150775       0.17079571
H       17.00959339      14.23681345      59.05303197      -0.06068820      -0.02765598       0.01890657
H       17.39693305      12.80205763      58.09170588      -0.34117834      -0.20685044       0.01212629
H       17.30070780      14.41787623      57.32874918       0.25178597      -0.02209447       0.02238325
H       15.25291484      12.61264568      57.22521606      -0.12382909       0.04139116      -0.11912204
H       14.84450774      14.27328568      57.40556937      -0.14900363       0.07254338      -0.00668517
H       15.63168959      11.24904943      59.64431829      -0.07264803       0.16307464      -0.21824348
H       16.16271436      12.80287385      60.44484802      -0.03014044      -0.13776970       0.03336552
H       12.63783473      11.12022450      55.88383682      -0.20489687       0.00765379       0.00548486
H       13.46639661      13.70831652      60.80963678       0.01184448      -0.01189069      -0.15727343
H       14.83749191      14.68575815      60.39260712       0.04847808       0.08830971       0.00230857
H       11.26110397      13.97692399      58.71028120       0.16213584       0.04132330      -0.11901077
H       12.33459394      14.12175316      57.41199196      -0.35166945       0.13054960      -0.24794329
H       11.44862489      15.52281414      57.91334145       0.08669332      -0.03095600      -0.05992021
H       14.32304585      17.05086044      55.63277749      -0.03956915       0.08643532      -0.10453341
H       14.82039384      18.07609950      57.23276325       0.12804090      -0.05570515      -0.10907214
H       11.60297710      16.69501162      59.90597235       0.13248946       0.13059563       0.11392239
H       13.01550296      16.76336727      60.89090870       0.03130343       0.24750315      -0.16194443
H       10.09916821      13.69086769      61.92100268       0.08123187      -0.02880013       0.21542493
H       11.28416869      13.31311613      60.68539942      -0.10911185      -0.12049925       0.11492464
H        9.95902157      14.45796218      60.47971349      -0.05689101      -0.02115731      -0.01780098
H       15.50329881      15.84642627      63.76933650      -0.04826313      -0.01226545      -0.13714368
H       14.39984888      14.63913266      64.53391036      -0.17863724       0.35548145       0.05656182
H       15.23512661      14.25245605      63.01373337      -0.04706482       0.12775561       0.07167577
H       11.33860941      17.05561778      62.88071214       0.20054313      -0.07620777       0.00296170
H       10.37809987      17.10283764      61.43833083      -0.16935937      -0.12268843       0.06744820
H        8.66086527      15.05947305      64.65615183      -0.02841051      -0.02370190       0.09282068
H       10.09255752      14.24166592      64.06068640      -0.07231095      -0.16826660       0.20450843
H       10.20211068      15.75016108      65.03341837       0.11996194      -0.04190679      -0.10767294
H        6.49360455      12.87898613      62.32949493       0.03383880      -0.13767159       0.10440778
H        6.57793537      14.15692057      60.93909133       0.05865856      -0.29640355      -0.11131371
H        9.79374832      17.94946339      63.93447068       0.13563833      -0.08877828       0.25231246
H        8.63323289      18.08756070      62.64939345      -0.01730282       0.10430208       0.11512460
H        5.59785452      16.86190446      64.70325123      -0.07952965       0.03297752       0.08230912
H        6.07157784      16.92979114      62.99352063      -0.01874727      -0.11250269      -0.04211631
H        6.62468749      15.59046879      64.00902167       0.04464255       0.15595959       0.17527752
H        7.43128229      14.98559872      67.87860895      -0.13330127       0.10924739      -0.01193163
H        6.92848661      16.60193503      68.50015584      -0.00683981      -0.00554242      -0.05815717
H        8.62886789      16.33369178      68.01903512       0.01396187       0.07248182       0.05563484
H        6.51707195      19.36270702      65.19501896       0.05746057       0.08672806       0.04750690
H        7.94109166      19.70080744      64.35948679       0.13404983      -0.07609434      -0.00648025
H        6.63940482      19.13645459      63.40026007       0.09348440       0.10281187      -0.14877827
C       13.72951501      11.12125049       2.37540593       0.33044818       0.78546455      -0.04497388
C       14.34698307      11.58728358       1.06334086       0.35180753      -0.69585070      -0.27740930
C       14.89786254      12.97271358       1.12572396       0.36985117      -0.04422406      -0.69030020
C       13.86934874      13.96302113       1.48819613      -0.30350621      -1.00483575      -0.27243596
C       16.02764751      12.90665455       2.19806275      -0.21389679       0.03780396       0.23582504
O       16.14122004      13.67758954       3.11396788       0.39464323      -0.76191881      -0.89328127
O       16.81681564      11.83404085       2.04637609       0.49596723       1.29261124      -0.51686213
C       17.81837516      11.61338067       3.03869950      -0.51955286      -0.39351182      -0.16964475
C       15.69074940      13.53559990      74.95153421      -0.25977123      -0.24668156      -0.23306555
C       14.92297560      14.14019476      73.64211051       0.25081932      -0.50175848      -1.11415313
C       14.03129935      15.24650267      74.07607327       0.21877272       0.42303930       0.83854012
C       14.21188986      12.90835527      73.11838835      -0.04010408       0.13537207       0.33862601
O       14.78014392      11.90387954      72.82316361      -0.01142546      -0.88561498       0.98264901
O       12.88297870      13.06500853      72.95856494       0.52031328       0.31204400      -0.66231232
C       12.13244937      11.91162643      72.49724441      -0.22918035      -0.07508879      -0.49345308
C       16.10919574      14.48613332      72.65327877       0.73411165      -0.05531717       0.82341111
C       15.86503992      15.22885558      71.25940071       0.28187832      -0.06843321      -0.19289839
C       15.31955600      16.62720376      71.44124468       0.06869263       0.17613877      -0.62244510
C       17.32212496      15.41598343      70.80122675       0.11131168      -0.21850831      -0.10849044
O       17.97391455      16.40010168      71.02886571      -0.16909206      -0.02450246      -0.74708852
O       17.84829043      14.36675674      70.13009244      -0.09775925      -1.81432669       0.15829873
C       18.75301443      14.39684927      69.19820092      -0.57481049      -0.14631219       0.07352210
C       14.95683681      14.49380393      70.39707589      -0.37532283      -0.44506070       0.23416678
C       14.67126781      14.70724072      68.89127538      -0.08592828       0.02371909       0.31966396
C       15.94227141      14.78695088      68.00263830       0.08018584      -0.11070335       0.76464158
C       13.86548306      13.48731953      68.51653221      -0.39609321      -0.00979973      -0.29564862
O       12.83410461      13.19678601      69.06500060       0.26516211      -0.28776797       0.39395716
O       14.43269591      12.78015483      67.56411413       0.19033373       0.33558520      -0.66977374
C       13.59473107      11.80186525      66.96659647      -0.04978505      -0.15715007       0.21752780
C       13.67564627      15.89531554      68.78514245       0.71255250      -0.44788029      -0.16417326
C       13.16480042      16.42563090      67.48768109      -0.30769785      -0.24444311       0.94946706
C       12.81025125      15.44979745      66.37981134       0.27748513       1.46930566       0.55054361
C       14.22205766      17.53348689      67.06853445       0.52076596      -0.06271753      -0.39916520
O       15.07754692      17.94873222      67.79940288      -0.39576944      -0.25727817      -0.90222219
O       14.00677048      18.10477904      65.84455210      -0.18416298      -0.60475638       0.52749346
C       14.60076075      19.39160396      65.67576832      -0.45728799      -0.06035697      -0.42687988
C       11.95600569      17.33257087      67.67618729       0.31361897       0.54559786       0.61984228
H       13.86030490      10.05143541       2.48383881       0.07173291       0.22681040       0.00276825
H       12.65450039      11.25768692       2.45687031       0.15131389       0.06872924       0.02117941
H       14.16661138      11.67017759       3.21967582      -0.05703619      -0.00633734      -0.12244016
H       13.60204242      11.50353562       0.27134109       0.09443777      -0.00307177       0.17678114
H       15.12422682      10.82593565       0.82659864      -0.07937521       0.25873667      -0.12292122
H       14.18224839      14.86364184       1.94888249      -0.07052213      -0.04458317      -0.03552139
H       12.85115250      13.74603626       1.25860913       0.02845376      -0.09701456      -0.38396983
H       17.36686891      11.62051733       4.03179802       0.07535291      -0.17109933       0.06928662
H       18.26253176      10.64230594       2.82076900       0.05182668       0.06407661      -0.27355339
H       18.59691543      12.37221019       2.99324374      -0.04007546      -0.04314484      -0.19558907
H       16.37255793      14.29810669       0.28051353       0.18129911       0.06167392       0.11144999
H       16.33082966      12.65657085      74.64622786       0.02965451       0.13730958      -0.31899505
H       14.51511639      16.17500328      74.35182821      -0.02939670      -0.02634767       0.05436495
H       12.93297636      15.25090297      73.97908146      -0.03093046      -0.14855705      -0.19756222
H       11.79592535      12.11425162      71.47674852       0.07924604       0.01796777      -0.17187658
H       12.70375883      10.95229077      72.61401004      -0.07890450       0.23112389       0.12005634
H       11.28473529      11.84659297      73.18617014      -0.05900411       0.16404050      -0.04769169
H       16.84393193      15.08058177      73.18379035       0.15316074       0.20877450      -0.08818546
H       16.52799988      13.56653920      72.29034097       0.15518042      -0.00237168       0.12102599
H       14.24625205      16.50922645      71.70532087       0.00911550       0.20572291      -0.07023028
H       15.84206950      17.18128449      72.18051713       0.10394632       0.07132195       0.05351796
H       15.39017351      17.13817772      70.45335380       0.18806607       0.04575672      -0.04738629
H       19.04402342      15.35796140      68.79838250       0.13414250       0.11035683      -0.06856177
H       19.01897745      13.47266256      68.76914785      -0.10557678      -0.25560774       0.06185671
H       13.94279902      14.26632735      70.79362070      -0.10625499       0.23712458      -0.04058368
H       16.55225585      13.95564831      68.19818211      -0.04809775      -0.17509740       0.12685326
H       16.42643739      15.75111984      68.09456502       0.18595112      -0.18190188       0.20058315
H       15.62156744      14.77853984      66.98072695      -0.07407180       0.12834549       0.04434938
H       14.22890881      11.38307870      66.19134972      -0.05838905       0.11025529      -0.07077905
H       12.71462856      12.25994319      66.65961398       0.09077688      -0.18064288      -0.00574480
H       12.75486557      15.46367654      69.28825470       0.03564828      -0.02056284       0.04958390
H       14.07605926      16.65219230      69.40553619       0.07803001       0.06243286       0.03251422
H       11.79822076      14.97781017      66.41460920       0.14898578      -0.11056175      -0.06258829
H       12.77791729      16.06947667      65.49257034      -0.16885146      -0.31574865       0.00355723
H       13.56993309      14.69369890      66.22311613      -0.12990254       0.00533977       0.14044909
H       14.03091612      20.01970961      66.36363628       0.00047182      -0.16395472       0.07894356
H       14.40556125      19.66250441      64.64020578      -0.10432375      -0.12160052       0.20189270
H       11.95971294      17.88775648      68.59401461      -0.11685705       0.08398792      -0.14863682
H       11.09487945      16.65227207      67.72887153      -0.13866923       0.02410975      -0.05610337
C        7.78778840      21.75469312      36.78382198       2.08955210      -0.26347908      -0.08958236
C        8.57227416      22.99128738      36.70042540      -1.46335449      -2.32514815      -1.09310868
C        8.06638304      24.12670967      35.76055264       0.33554116      -0.22796395       0.88560253
C        7.91635400      24.31837894      37.36631000      -0.53998292       2.62380234      -0.61618142
C        8.94676571      25.03144260      35.10021013      -1.33922907       0.82906813       0.12513988
O        8.58987096       1.02100649      34.74012035       1.98174691      -0.79026896       0.87035206
O       10.32237644      24.68187898      35.19150429      -1.40857665       0.08051508      -0.92290598
C       11.18551559       0.61914373      34.78226571      -0.63905021       0.37232028      -0.06071988
C        6.85319996      23.92321454      34.75523785       1.68239403       0.32988659       1.07596349
C        7.09296138      23.49430128      33.36754009       0.23324919       0.18396067      -0.39760568
C        6.82671456      24.57882766      32.20454146      -0.39311177      -0.14115702      -0.04307665
C        7.01198993      22.03702035      33.11310289       0.54615025      -0.67155634       1.73141597
O        7.41022845      21.18319500      33.88140729       0.40555153      -1.19787879       0.34048849
O        6.58804459      21.69571277      31.95482627       1.24191480       1.28885852      -0.70904132
C        6.35029928      20.38392864      31.77618162       2.01405125       0.32538886      -0.07224050
C        8.14875162      24.14697582      32.43628401       0.84869018      -1.56799571      -1.42436843
C        9.16622883      23.47452148      31.42289234      -2.44647727      -0.62847869       1.09774924
C       10.43274642      24.35684383      31.11557535       2.60312226       0.21983155       2.65436949
C        9.56865309      21.99272037      31.75869911       1.05037676       0.88412535      -0.84541325
O        9.47918973      21.12408961      30.91417281      -0.59534862       0.28634623       0.04407027
O        9.98811809      21.90519096      33.01660031      -0.92720025       1.00987274      -0.73318730
C       10.15317319      20.68189938      33.43051492      -1.21990785      -0.39773486       1.65357467
C        8.64965070      23.57716659      29.94693261       1.50329194       0.06819068       0.57499281
C        8.95650312      25.00076913      29.52215708       0.27819486      -1.06635733      -0.33749143
C        9.93744634       0.45008514      30.44755696      -1.11156735       2.02123292      -1.25666527
C        7.68577616       0.69429413      29.62316281      -0.00405935      -0.19340582      -0.69959149
O        7.45303374       1.67149119      30.29280708      -0.17209863       0.81767174      -0.87307513
O        6.75537635       0.11183501      28.78203392      -0.93903984       0.13752220       0.40221110
C        5.52137732       0.84065123      28.57075334       0.33897916       0.27291103      -0.09512184
C        9.46832438      24.96258824      28.02996264      -0.08800525      -0.58854461       0.87095556
C        9.67212735       1.20913710      27.26441906       2.41752207       1.10248149       0.32298362
C        9.20267909       2.42463583      28.06411563      -0.50160056       0.41217141       0.18620421
C       11.06175477       1.46230174      26.91314155      -1.09011520       0.07865724      -0.99487490
O       11.69547713       1.18081659      25.95381235      -0.10633540      -0.44908353      -0.57003289
O       11.57437059       2.31229204      27.85041086      -0.62388185      -0.42406745      -0.31528442
C       12.49543044       3.10099699      27.65394292      -0.22150661       0.04334466       0.58313816
C        8.75069564       1.14723635      25.98879068      -0.54746511      -0.59310280       0.37026287
H        8.59955415      21.03920515      37.02931196       0.02260394      -0.12513200       0.19364183
H        7.25471450      21.31119365      35.95544945      -0.21515205      -0.13902245      -0.16550222
H        7.16540452      21.70143097      37.65379268       0.24147650       0.16249589      -0.00920988
H        9.60721621      22.67402187      36.96947093       0.04589427      -0.02990582       0.04664213
H        6.86022975      24.34929184      37.55831353       0.21751349      -0.10985913       0.14893816
H        8.73249713      24.94358820      37.65570383      -0.42901023       0.14841313      -0.15134696
H       12.15106805       0.26807419      34.98426382       0.03574747       0.02206595       0.07365831
H       10.88797514       1.49966328      35.37061196      -0.05894247      -0.08087103      -0.19739520
H       10.99206361       0.85349997      33.71940409       0.01088313       0.08760829      -0.01073322
H        6.25168454      24.80728809      34.70653201       0.13850215      -0.03799334       0.14636529
H        6.08072648      23.35847212      35.25547289       0.09422591       0.07706210       0.29139166
H        6.54180660       0.35082957      32.65242004       0.09327463       0.10446637      -0.21111405
H        6.33553233      24.24907640      31.28890791      -0.17548099      -0.38853678       0.08253913
H        5.63723248      20.07173562      32.57425529      -0.17200976       0.12862174      -0.19932846
H        7.32006970      19.87511124      31.91266220       0.05421633      -0.22156539      -0.15664863
H        5.91668051      20.10073961      30.83872807      -0.40638529      -0.07244463       0.18373760
H        8.74185037      24.97960110      32.74141354       0.23399972      -0.55569307       0.17807140
H       11.01289879      24.53366341      32.07328491      -0.67103329      -0.64293893      -0.10633409
H       11.15439997      23.65954714      30.84941100      -0.00107785      -0.02703382      -0.55424896
H       10.26623179      20.65037816      34.50113697       0.06242897       0.16636466      -0.32910531
H       10.30178501      19.91083030      32.70652284      -0.04725278      -0.00396210      -0.37695558
H        7.61634531      23.29038926      29.93436682       0.22028123       0.19374852       0.13482681
H        9.08917729      22.85137831      29.24817333      -0.32005508       0.58267009      -0.29341638
H        9.44370941       1.17285688      31.06855057       0.08301272      -0.04906024      -0.12847953
H       10.75736881       0.89518053      29.94407046       0.01192502      -0.23324290       0.18958960
H        4.77944761       0.58166533      29.33742535       0.13613997       0.18844777       0.17151399
H        5.66363742       1.88443732      28.70050554       0.08729444      -0.05421394      -0.03428522
H        5.11419828       0.69840491      27.57955056      -0.06741119       0.02587206       0.02476786
H        8.70250563      24.33127460      27.40526835      -0.25569764      -0.17040664      -0.15214289
H       10.29385430      24.23938240      27.94126766       0.49882730       0.26017746      -0.18824357
H        9.43365142       3.24694892      27.43636723      -0.27141321       0.14642040      -0.12418848
H        8.13633375       2.45914654      28.28171164      -0.04857202       0.07759562       0.03393000
H        9.83110981       2.62298830      28.91651064       0.21674897       0.18859529      -0.13914367
H       13.21181371       3.14714682      28.45226137       0.06136632      -0.03441139      -0.36267189
H       12.68421332       3.56474100      26.70800129      -0.13796632       0.21688551       0.13645787
H        9.34049972       0.65192680      25.17947524      -0.06786048      -0.09373451       0.07819781
H        7.81156397       0.62761859      26.26775460      -0.18336046      -0.18997585       0.01651709
H        8.56805181       2.18794511      25.72284044       0.07118451       0.03391912       0.17520406
C       18.87532060      20.89164028      53.36246438      -0.46977680      -0.31106958       0.17068297
C       18.50843096      19.60463580      52.62384397       0.25134151      -0.16168011      -0.50433443
C       17.37627949      18.74534870      53.33718603      -0.32960806       0.71524280      -0.07569218
C       16.26260820      19.63119982      53.96098915      -0.08012823       0.54997111      -0.18434789
C       17.99670472      17.94001402      54.50492117      -0.49194849      -0.72255231       0.04383758
O       18.59954063      16.90674818      54.56466100      -0.56971245      -0.89774313       0.29160498
O       17.49508573      18.50898226      55.69028074      -0.83218972      -0.87652171      -0.41943289
C       17.56514368      17.98961606      56.84088910       0.55410851      -0.63710151       0.10314001
C       16.64685886      17.68293111      52.46035374      -0.83534853       0.06494987       0.37242112
C       16.06138303      17.97760556      51.09920013       0.28624838      -0.23393067       0.12319615
C       15.17700250      19.17551537      50.94542482       0.40461622       0.43302323      -0.73122411
C       17.28366959      18.05911391      50.08506957      -0.30060591      -0.28282627       0.06968034
O       18.31717399      17.44424295      50.19464865       0.57114677      -0.16016034      -0.13589926
O       16.95604418      18.77746296      48.98417259       0.13458601       0.10470494       0.50298075
C       17.95063947      19.14452655      48.06452199      -0.85669925      -0.20154371       0.37417062
C       15.29065682      16.72522166      50.61678120      -0.57600160       0.04920440      -0.69613880
C       14.08551752      16.15745999      51.47855438      -0.08324037       0.63424911       0.05042687
C       13.15692787      15.56030302      50.39932036       0.58928021       0.42369030      -0.81444790
C       13.26981621      17.09518414      52.37567608       0.70835106       0.40010331       0.25934480
O       13.83336297      17.79963643      53.19341866       0.05046032      -0.99241213       0.15956702
O       11.98072891      16.93618488      52.22815601       0.45711151      -0.45113830      -0.26589747
C       11.10270934      17.59238120      53.15785110       0.18169119       0.25321698      -0.43187583
C       14.66095836      15.13636909      52.56219973       0.06768635       0.19080779       0.18035139
C       13.72758576      14.20068209      53.38552787       0.15316188      -0.13695350      -0.11254467
C       12.87489009      14.94448766      54.34317771       0.90691625      -0.10928000       0.22509609
C       12.88200518      13.36822789      52.38628353       0.53406224      -0.47581624      -1.01673072
O       13.22811250      13.07054663      51.29186767       0.17029178      -0.27483198       0.08623965
O       11.71050402      13.02253172      52.94613426       0.22042131       0.28377384      -0.13010012
C       10.72907477      12.57948239      52.04534735      -0.59797312       0.95072080      -0.40469078
C       14.63345402      13.25904870      54.39608375      -0.49903475       0.23329607      -0.02335749
C       15.90481381      12.60912314      53.95441589       0.62585242       0.13672567       0.03545735
C       16.18996621      11.54888647      54.99212882      -0.34599785      -0.59794179      -0.65889195
C       15.63425330      12.00940946      52.63756414       1.09129342      -0.08935057      -0.55188477
O       14.90884309      11.04935501      52.50341080      -0.58147187      -0.23046412       1.26029154
O       16.21080375      12.58485387      51.63887903      -1.10830405      -1.22177523       0.12406962
C       16.13231686      12.06364840      50.36090768       0.08029558      -0.18186148       1.09378460
C       17.06956078      13.55441514      53.90808252       0.24617459      -0.01499095      -0.19592575
H       19.06280068      20.72770928      54.42516083       0.02605585       0.03645594       0.04203670
H       18.04923180      21.60869303      53.25936619      -0.14401581       0.13829886       0.19840113
H       19.79226283      21.30787918      52.87975833      -0.03526492       0.01284061       0.10970212
H       19.37521562      18.94432877      52.51406466      -0.02857573      -0.02772281       0.08175439
H       18.20703144      19.92430659      51.62986291       0.06866398       0.22840149       0.07108013
H       16.59155623      20.28933329      54.73926142      -0.09305431      -0.13988175       0.19468496
H       15.40397161      19.05116770      54.29862483      -0.04225216       0.17470711      -0.20315016
H       15.80931444      20.25001970      53.19246989      -0.17541932       0.02842962       0.00377536
H       17.26259067      18.69300703      57.64000713      -0.07625506      -0.15068273      -0.16566490
H       17.63739369      16.89530417      56.80168103      -0.12091644      -0.12475941       0.32459588
H       17.31772802      16.82412307      52.34897030       0.07378417       0.19829697      -0.13513120
H       15.81743093      17.35637456      53.04270753      -0.15687789       0.12055245      -0.07323916
H       14.30761755      19.01395247      51.58567348       0.08651931      -0.04384472       0.11587941
H       14.88103798      19.21714256      49.91639417       0.01215916      -0.00603732      -0.10866315
H       15.69674170      20.08304910      51.22521126      -0.03368925      -0.01042254       0.08005541
H       17.69845893      18.68767925      47.13458615       0.13380850      -0.06843159      -0.04143294
H       18.93554850      18.75967697      48.32453207       0.03254695       0.10866330      -0.01896427
H       17.93828956      20.24826721      47.94551837      -0.20216221      -0.02327583      -0.03806255
H       14.83419372      17.03674527      49.70298505      -0.00042949      -0.01147998       0.09832411
H       15.96950829      15.84676634      50.52174885       0.00663230       0.09481679      -0.17161123
H       12.91264822      16.38157547      49.74412060      -0.09432417       0.15217741       0.13652610
H       12.22213625      15.41087038      50.88713447       0.23781615      -0.10395031       0.15474406
H       10.43343852      18.07720851      52.49154252      -0.09593717      -0.17152956       0.07291537
H       10.58131596      16.78620763      53.65878878      -0.06734438       0.03903010       0.05155766
H       15.24424384      15.74678165      53.23885669      -0.13913133       0.12153911       0.06654613
H       15.37272538      14.44809937      52.07262230      -0.01962032       0.17134181      -0.14530753
H       13.37977915      15.52091781      55.13462098      -0.26487215       0.22021096      -0.07526848
H       11.86321912      14.68120140      54.56021243       0.18363383      -0.04588011      -0.17796206
H       11.26425491      12.13940524      51.23475952      -0.21640077       0.04017539      -0.08706312
H       10.04627253      11.87123909      52.51916521       0.11010521       0.25447836       0.11538168
H       10.19661861      13.46038087      51.66761418      -0.19766183       0.15381514       0.00282700
H       14.89837821      13.87351485      55.25317780       0.23425546      -0.12376632       0.02863522
H       13.92465269      12.57470622      54.81265532      -0.01550295       0.14786204      -0.06388586
H       15.41100155      10.80138331      54.75951035      -0.04389379       0.01955414       0.06141781
H       16.95653433      10.93986847      54.54726813       0.10749669      -0.06271099      -0.07282609
H       17.04122591      12.58581091      49.97133629      -0.30589940       0.28302789       0.01040530
H       17.96570319      12.89203576      53.87521510      -0.10823495       0.13827569       0.08061920
H       17.08161770      14.02260819      54.89454232       0.02175808      -0.09862156       0.02359665
C       14.74400850       1.55508942      49.21391357       0.18446263       0.08214157       0.67113664
C       15.62779304       0.53827328      49.68400723      -0.41682780       0.55418841      -0.58405021
C       15.24604338      24.20033938      49.36744947       0.96488347       0.34790437      -0.81502774
C       13.97466104      23.79569740      50.18294903      -0.84085086       0.58321310       0.10790812
C       16.41869175      23.43997459      49.91014560      -0.20527425      -0.00385771      -0.06196337
O       16.28345333      22.69409937      50.83488018       0.70567258       0.98783941       0.28066888
O       17.59935545      23.69351544      49.26360068      -0.55169310       0.31338812       0.35511035
C       18.76941968      23.21785698      49.89111925      -0.53853646      -1.03924896      -0.14691209
C       14.97864284      23.96714899      47.95019898       0.67288678       0.06811315      -0.06333335
C       14.34757616      22.79906389      47.28268319      -1.13164378       0.15051765      -0.14505185
C       14.87242173      21.58832955      47.96225273       0.77970262      -0.24082932       0.49005761
C       12.78873567      22.93634584      47.53026067      -0.71159857       0.01308634       0.14629498
O       12.06401183      23.57053477      46.82182145       0.62052127      -0.82667350      -0.34470242
O       12.31959409      22.35103791      48.66181185       0.69136036      -0.13184741       1.07257652
C       11.06257938      22.58083161      49.04826899      -0.02740996      -0.49533258      -0.69798392
C       14.55157388      22.77471014      45.72163682      -0.23690336      -0.55709605       0.72368973
C       15.54341881      23.66531039      44.91626691       0.15995492      -0.80621648      -0.16175877
C       15.28197504      23.38667093      43.43835011       0.30504372       0.52828389      -0.14860661
C       15.21750570       0.03848541      45.07955294       0.44344270       0.54134282       0.41525941
O       16.06399834       0.87890481      45.22095293      -0.02773983       0.94177012       0.37821924
O       13.90628809       0.28585422      45.05630610       0.07919787      -0.52708573       0.52027351
C       13.56565071       1.63443493      45.42714068       0.61702284      -0.26919915       0.18183250
C       16.97803079      23.46088413      45.33482089      -0.14474650      -0.32221659       0.36535763
C       17.85030270      22.23919338      44.88330952      -0.80388903      -0.71116747      -0.31286986
C       17.17267995      20.91811071      45.07280027      -0.83256797       0.52198562       0.27568094
C       19.05978873      22.20815917      45.80740055       1.08392526       0.63029597      -0.38607518
O       19.47696113      22.96488389      46.67287512       0.24972586      -0.80149771       0.15914455
O       19.58230046      20.97884370      45.65986074       0.74779515       0.19753845       0.74978484
C       20.33599649      20.46606238      46.56334009       0.53570089       0.85000979       1.13734669
C       18.47564689      22.25615627      43.58281456      -0.11533543      -0.04173346      -0.34510719
C       19.22303966      23.40992604      42.95293967       0.02224829       0.89855919      -0.23366135
C       20.47240476      23.78059962      43.79932542       0.90881052      -0.69168989      -0.45805748
C       19.67424663      22.92908655      41.63556509       0.59686557       0.37351667      -0.30443131
O       19.41088081      23.34107315      40.53891334       0.11772973       0.22584897       1.27267342
O       20.74254950      21.97993019      41.75211362      -0.63236636       0.82669200       0.21258439
C       21.22971871      21.61097822      40.64077787       0.07909356       0.33449465       0.06871393
C       18.36972974      24.61500358      42.65186815       0.95768098      -0.01209899       0.04664675
H       14.15754710       1.27584751      48.35152841       0.38210049      -0.06367365      -0.02869212
H       14.89001412       2.56883333      49.46074479       0.00617018       0.03652269       0.20317351
H       16.68842655       0.77470298      49.44443399      -0.09298205       0.23739711      -0.13321416
H       15.87070510       0.73132451      50.72452608       0.10305359      -0.02400558      -0.09395856
H       14.10986901      24.00481970      51.24841674       0.01454708       0.00801173       0.03050660
H       13.69952773      22.80234387      50.18441104      -0.17068466       0.12522261      -0.10496805
H       13.13813989      24.46744637      49.85143982      -0.06060904       0.12837930       0.00156465
H       19.58914053      23.19974633      49.15310967      -0.28887530       0.01671713      -0.19807139
H       19.15772350      23.85317208      50.69050527       0.04009782      -0.08943881       0.24207801
H       18.56099155      22.20797609      50.31183261      -0.05748609      -0.06130525       0.01842027
H       15.14872583      24.74304515      47.34768600       0.10848494      -0.08565928       0.20058479
H       15.72272583      20.93916596      47.66060715      -0.05844487       0.37564327       0.15738334
H       14.34070646      21.45407786      48.89770198      -0.00269393       0.21949458      -0.24541682
H       10.54790604      21.69576385      49.33031399      -0.03042636       0.08374778       0.01608367
H       10.63907357      23.53664980      48.82311799      -0.18734967      -0.23275602       0.07554729
H       14.78963929      21.76135950      45.43082161       0.15886312       0.08760959       0.18141417
H       13.53955497      22.95134292      45.33144227      -0.09041014       0.12962844       0.24510694
H       16.09911428      23.47808291      42.72775744       0.00853918       0.13581681      -0.01545712
H       14.48743825      22.71641379      43.08920566       0.09796264       0.08335303      -0.06274630
H       12.49823631       1.67604129      45.56108320       0.15795531       0.07659955       0.00060285
H       14.10452284       1.92169906      46.30666940      -0.10559470       0.00320000       0.17839811
H       13.85588571       2.35462908      44.64788182      -0.08372140       0.08803531       0.10298154
H       16.96526202      23.47837567      46.44073489       0.03088804       0.09046917       0.09386216
H       17.57680485      24.27890468      45.01396387      -0.08688288       0.01866167       0.25757735
H       16.40725691      20.86246118      44.32851512       0.11020479      -0.38046482       0.02559526
H       17.96243340      20.19911700      44.92623505       0.13082327      -0.05819991       0.03228775
H       20.33016329      21.04154836      47.47041542       0.11399149       0.01720127       0.05826609
H       20.74573800      19.53437087      46.24287552       0.00995851       0.00003515       0.12875091
H       19.03230055      21.37420308      43.30321500       0.05093230       0.14625810      -0.26879014
H       20.03752752      24.27792940      44.62812310      -0.07117265       0.15848411       0.23461020
H       20.95730567      24.41886174      43.10353850      -0.18440321       0.14065259       0.03996646
H       22.15287403      21.03796582      40.68000178       0.09482666       0.05613192       0.12182944
H       20.85558258      21.97339620      39.69952929      -0.01417295       0.31252676       0.28596669
H       17.91069034      25.11046130      43.52123063      -0.08927712       0.04686856       0.03410511
H       17.58301541      24.40655936      41.97935390      -0.07440931      -0.18256014      -0.03688756
H       18.94216362       0.23511217      42.14109909       0.00046737      -0.05154150       0.09956686
C        4.99381430      14.16212838      43.16088171      -0.35974878       0.16910473      -1.47379827
C        4.01575257      14.02727103      42.07278925      -0.51128510      -0.28583703       0.80236646
C        2.67111823      14.60013896      42.17005654      -0.16004982      -0.10674215       0.23087492
C        2.53974821      16.01352754      42.79418480       0.52757117       0.29786507       0.22248032
C        2.13877957      13.67580133      43.33766211       0.48079202       0.49076898       0.03216996
O        1.94784449      14.13414525      44.40862482       0.20146380      -0.50934170       0.28694773
O        1.94535838      12.40265901      43.06439695       0.42733309      -0.19789715       0.07511691
C        1.43730340      11.67195012      44.15901486      -0.42921860       1.32334038      -0.76645848
C        1.72567857      14.40434419      40.99109873       0.67232651      -0.43506984       0.13978873
C        2.17131844      14.97952658      39.50890424       0.37252216       0.61051665       0.75144828
C        3.22415208      14.10817493      38.87845443      -0.31141831      -0.91890371      -0.61653202
C        0.75889219      14.80507965      38.84200956       0.13589889       0.25387121      -0.31237243
O       25.03098673      15.57261356      39.06850861       0.13495474       0.15691469       0.03564699
O        0.61257261      13.65894201      38.12215191       0.29177209       0.63211309      -0.01031379
C       24.44937144      13.57120534      37.55323017       0.43235309       0.24847480       0.54802114
C        2.58953597      16.46071206      39.63600235      -0.31877829       0.04776304       0.35412269
C        2.64369937      17.41108830      38.34147043      -0.51511293      -0.66356693       0.57621127
C        2.81564659      16.64107715      37.03679377      -0.63111174      -0.75039416      -0.17924444
C        3.71830557      18.47535331      38.59887019      -0.97865443      -0.56009023       0.05480082
O        3.56401527      19.19387788      39.56795221      -1.70633294      -0.35914967      -0.01083590
O        4.83405902      18.45364074      37.91638069      -0.36051060       0.60284762      -1.44851158
C        5.83632436      19.38205214      38.19668022       0.01746147      -0.73497671       1.07153433
C        1.27674795      18.17896280      38.30509017      -0.03437125      -1.13564102       0.08419799
C        0.85488737      19.01400131      37.04462991      -0.53411110      -0.25229370       1.42249230
C        0.16767186      18.09539747      36.05205099       0.19637926      -0.64714207       1.18127897
C       24.95811937      19.88015741      37.55425810      -0.11152520       0.66477268       0.74032997
O       23.93389200      19.41699857      37.96940891      -0.07902957       0.18968820       1.61622309
O        0.05904291      21.23367706      37.47693688       0.95554229       0.01004452       0.57048528
C       24.32951180      22.02040498      37.84946690      -0.15697043      -0.22406301      -0.30280562
C        2.09812349      19.89928034      36.65597958      -0.79562088      -0.89274139       0.68142130
C        2.12954608      20.43029677      35.18003437      -0.02403255      -1.36423989      -0.02433655
C        0.96293224      21.42458718      35.01375540       0.03365548      -1.25311646      -0.73882754
C        3.31230343      21.46672341      35.26131871      -0.09431890       0.97306737       0.06257325
O        4.15068308      21.80299219      34.49678346      -0.13352841      -1.43510166       1.71253371
O        3.43178178      21.88918721      36.55939373      -0.90440734      -0.21871486       0.03046378
C        4.40860074      22.57029519      37.06878550      -1.22232102       0.71348815      -0.44340530
C        2.36777559      19.19092779      34.20163803       1.48821884      -0.27005926       0.58345320
H        4.58143381      13.91225767      44.14698152      -0.08798643       0.22169920       0.03359098
H        5.25777465      15.22572728      43.26692145      -0.14773229       0.18280739      -0.25871379
H        5.90891006      13.63094525      42.97557733       0.02113668       0.07760007      -0.03728515
H        4.31312813      13.30417797      41.30901331      -0.07558729      -0.06419362       0.25843497
H        1.66504007      16.05205658      43.39863812       0.30552680      -0.09661754      -0.23323938
H        3.41949471      16.34258168      43.32912856       0.12165710      -0.04636943       0.00967422
H        2.33425537      16.77541285      42.02518808       0.01401697       0.06713439       0.35422438
H        1.51470209      10.61021625      43.92792030      -0.01070324       0.01410287      -0.26511534
H        0.37900746      11.87918555      44.31182660      -0.09524250       0.08664876      -0.06785273
H        1.88133410      11.97991485      45.12356771       0.07421942      -0.13198634       0.18151329
H        0.76073661      14.74543421      41.25418757      -0.01414651      -0.18589770      -0.04261099
H        1.64941984      13.38911325      40.79347965       0.02640125       0.27887471       0.01807484
H        3.41815629      14.27993381      37.82389175       0.20053744      -0.00442688      -0.13194420
H        2.92496103      13.07068832      39.01083431      -0.06472237       0.00873599      -0.07741614
H        4.18604948      14.28126836      39.33971098      -0.07883599      -0.16797889       0.27648019
H       23.90138396      12.99887279      38.31257085       0.09354656       0.03866033       0.26233652
H       24.72626812      12.87497345      36.77096116      -0.08655826       0.08953065      -0.02515301
H        3.54862972      16.57245325      40.12190087      -0.01359887       0.16610366      -0.01164176
H        1.90156599      16.89717693      40.29474981      -0.27733921      -0.10923927      -0.15315951
H        3.71225048      15.99246327      36.99312469      -0.12557736      -0.24889780       0.41510343
H        1.96755483      15.94029068      37.00976803       0.10318391      -0.00085904      -0.16213457
H        2.81162449      17.33850597      36.20642436       0.02623778      -0.02646036       0.18068249
H        6.61038802      18.69724070      37.81236464       0.00324339       0.12945102       0.21816250
H        1.18418693      18.75656736      39.25522124       0.11746957      -0.26787862      -0.03272851
H        0.44002499      17.47696088      38.40146154      -0.00307051       0.08004024      -0.07346880
H        0.87444758      17.39254213      35.59952482       0.09132289       0.23971499       0.07210527
H       24.90389752      18.62983833      35.24726129      -0.05279879       0.12908783       0.22904261
H       24.63085857      17.46055549      36.62710985       0.04665057      -0.11187823       0.15470208
H       24.67242497      23.06589524      37.96165956       0.02402230       0.23498371      -0.13401627
H       23.33548329      21.61991044      37.86145765      -0.04081587      -0.21686443       0.36104243
H        2.96465669      19.24701450      36.78673954      -0.12059336      -0.08545410       0.04055458
H        2.20851931      20.66951600      37.42462403       0.01065077       0.04973355       0.05590794
H        0.89199093      21.55588793      33.91696883       0.19396724      -0.41923990      -0.17539966
H        5.33337688      22.03086839      37.22790873       0.13957445       0.34114424      -0.07318800
H        4.11951140      23.62199718      37.24658115      -0.07396547       0.03113668       0.03598030
H        2.95942286      19.80182705      33.49230474      -0.12611016      -0.41564556       0.16797365
C       14.61825146      20.55801102      26.05703535       0.93759188      -0.23300556      -0.04296943
C       13.80080109      19.40437752      25.57332729       0.24375028       0.82229213      -0.53892236
C       14.51110280      17.99993509      25.47734483       0.30180917       0.11840227      -0.51320667
C       14.80919484      17.52969474      26.89254655       0.19758645       0.80618215       0.15123307
C       13.46004551      17.01643584      24.89562519      -0.37367999      -0.89717730      -0.32097039
O       13.50865084      15.79428828      24.81732882      -0.17582759      -0.32794639       0.77070439
O       12.39827373      17.67854621      24.36649057      -0.08594667      -0.92446006       0.24144722
C       11.45622854      16.98551710      23.62674473       0.08716957       1.05061406       0.29201692
C       15.75070651      18.38014153      24.84137419       0.12403662       0.48746962       0.14612453
C       16.16363620      18.41975616      23.44815757      -1.02163557       0.24140734       0.31368798
C       15.08444833      17.91738954      22.47028480       0.00647328       0.71148375      -0.74831495
C       16.59809484      19.84760439      23.13775887       1.77908743       0.35892015       0.49606993
O       17.42636424      20.43088968      23.75326746      -0.78880594       0.26060155      -0.61716020
O       16.19104694      20.18853037      21.90585116      -0.31205007       0.25954363       0.78257449
C       16.37915748      21.48924595      21.49672201      -0.10806330       0.26347230      -0.55157184
C       17.41738243      17.59490781      23.43209800       0.18245228      -0.17442541       0.07389692
C       17.60598344      16.15692358      22.98408554       0.17760634       1.16130399      -0.63664216
C       19.01587526      15.94262483      22.71299369       0.75680874      -0.32274614      -0.19661780
C       16.97951692      15.96389376      21.59620034       0.04253208       0.52624271       0.16424651
O       17.18039968      16.73171561      20.65496805       0.64717914      -0.34103893      -0.23927214
O       16.18437382      14.87190713      21.43012587       0.50408637      -1.06645750       0.72620594
C       15.61146318      14.68208749      20.13024389       0.62626792       0.23555254       0.06236367
C       16.99042964      15.29673975      24.06229559      -1.03702225      -0.84651484      -0.51137628
C       17.79918974      14.86235446      25.31894602      -0.30345051       0.02703461      -1.25341183
C       18.64465082      13.63092361      25.16444855      -0.26144868      -1.38330471       0.87467471
C       18.40928036      15.96144174      26.10389495      -0.68016175      -0.52545015      -0.82994791
O       17.79558596      16.67671318      26.85899187      -0.57375629       0.30239563       0.55138096
O       19.70972143      16.06222430      26.06748284       0.62530535       0.59027020       0.52529191
C       20.40988872      17.18275389      26.63659324      -0.07923430      -0.12327992       0.20210926
C       17.48723759      13.67873324      26.16648439       0.47647346      -0.80177287      -1.45889489
C       16.19603601      12.86425684      26.22080584       0.90203276      -0.03765739       0.04002016
C       15.29565162      13.52628473      27.37394206      -0.35820039       0.73075782      -0.05528941
C       15.43246232      12.55917565      24.99484597      -0.68735829      -0.04401735      -0.49475983
O       15.95568933      12.34239421      23.92573436       0.40711132       0.66528879       0.37647819
O       14.15044555      12.62657358      25.17586348       0.77178158       0.31771333       0.23917960
C       13.28821028      12.03632188      24.22115429       0.82826270      -0.51388066      -0.04112857
C       16.66703766      11.48743239      26.85413767       0.22844209       0.51956377       1.01515054
H       15.00490948      21.22630080      25.29855683      -0.14494209      -0.00797067      -0.11325058
H       14.65354007      20.89247170      27.09346532       0.00204263      -0.15466564       0.01422636
H       12.90103277      19.36129292      26.21098834       0.16505535       0.05990766      -0.04812665
H       13.45097613      19.68010750      24.54576089       0.00310681       0.00006803      -0.12046340
H       15.56400024      18.19854614      27.33763956      -0.14941993       0.04708727       0.23995138
H       13.88677391      17.60740295      27.49170242      -0.06869149       0.20541634      -0.00102907
H       15.22564248      16.54165216      26.92590961      -0.08276640      -0.03860169       0.09917411
H       10.93266599      17.72707875      22.98524486       0.00483045       0.22020460       0.02944708
H       11.87544659      16.10615816      23.15699870      -0.18524972      -0.01776959      -0.13135080
H       16.36498755      18.99952441      25.47348512      -0.07459312       0.13688161      -0.16879092
H       15.41110202      18.06832024      21.41424975      -0.12514406      -0.06636516      -0.17490821
H       14.18011959      18.37208815      22.73891214      -0.03648482       0.07688022       0.05191111
H       15.14765470      16.87644835      22.72037249       0.03802729      -0.31966709       0.00415358
H       15.94303264      21.29164700      20.47378160       0.15473214       0.12982764      -0.02138716
H       18.18461446      18.11495808      24.04660259       0.11417081       0.00597763       0.06306656
H       19.55745728      16.28904755      23.55899408      -0.00130595       0.27575059      -0.06883390
H       19.29265195      16.47547630      21.82796316      -0.20321207      -0.04078068       0.00121273
H       15.81148301      13.66603278      19.85946346      -0.10213364       0.25776843      -0.18298958
H       14.57749263      14.91619791      20.24854577      -0.03626549      -0.12207287       0.07077479
H       16.07037003      15.75258980      24.29924081      -0.13196365      -0.16758475      -0.31895458
H       16.73097072      14.34607794      23.60994394       0.40372601       0.05991563       0.07329244
H       19.57437782      13.43936226      25.64890132      -0.22097851      -0.19052115       0.02058680
H       18.46391895      13.02157116      24.29334213       0.09379360       0.07801770       0.15957722
H       20.80031036      16.85630887      27.59088444      -0.28356093       0.03041668       0.09053139
H       21.23610199      17.43245049      25.96266949      -0.01701374      -0.11383537       0.08949167
H       19.75290574      18.01023094      26.80325462       0.03099841      -0.24519555       0.17901469
H       17.75169198      13.91547011      27.17376375      -0.05816866       0.01097227      -0.17311218
H       14.96589502      14.52875878      27.12602755       0.06089126      -0.03839668       0.26799808
H       15.91461034      13.54207849      28.27266468      -0.19592692      -0.34206687       0.30289556
H       14.44711614      12.85566422      27.60640308       0.03833623      -0.14272706      -0.01656052
H       13.76633349      11.18176681      23.74001761      -0.16883114       0.12807341      -0.02806100
H       13.02514811      12.70044267      23.43275233       0.13529858       0.18798868      -0.26596825
H       12.47491406      11.71285531      24.86998112       0.19415353      -0.09915356       0.03044157
H       15.82947701      10.92166205      27.20059511      -0.16311250      -0.12186169       0.15624098
H       17.19421216      10.94071843      26.10526979       0.19405625       0.29640267      -0.25581638
H       17.36816555      11.59879113      27.67583016      -0.20800676      -0.00859744      -0.09692238
C       17.70250417      17.71641794       6.64833518       0.34587538      -0.57768935      -0.52027311
C       16.79762198      17.60590684       5.48962437       0.48593114      -1.06242037       1.22736634
C       15.88347138      18.83493019       5.23734891       0.11884678      -0.26397789      -0.82913821
C       16.65268744      20.11417512       5.44722475       0.06131932      -0.29655341      -0.02862759
C       15.47289402      18.84570744       3.76915732      -0.46072679       0.68302401       0.00373711
O       15.29444227      19.84100758       3.08771466      -0.59382995       1.48369412       0.65829769
O       15.51213625      17.63462333       3.25340026      -0.13863635       0.08023509      -0.04947620
C       15.21745556      17.45787391       1.91728400      -0.27027480       0.34443018       0.02011514
C       14.77703238      18.92335395       6.28690117      -0.08322842       0.06326015      -0.23007482
C       13.57726096      18.10925376       6.27180321      -0.08461054      -0.42249644       0.21736717
C       12.60485969      18.49015376       5.14321012      -0.44911257      -0.58114803      -0.05380235
C       13.97490410      16.62345492       5.98463992       0.17747425       0.26953700      -0.67872000
O       14.64953955      15.96223606       6.75359637      -0.00584717      -0.67911927       0.41821764
O       13.43730967      16.08552681       4.91800460       1.31983323      -0.38942791      -0.60428289
C       13.51808967      14.67531777       4.66092177      -0.07023113       0.30761551       0.65671527
C       12.82073337      18.16837637       7.67301744      -0.20332573      -0.82864491       0.27693569
C       11.87335526      19.30736764       8.15159423       0.33851520      -0.30994098       0.72086741
C       11.65147723      19.06957002       9.59370390       0.17968003      -0.75789555       0.38983686
C       12.50704491      20.71300311       7.86351419       0.23043960      -0.59888235      -0.11657848
O       12.49868445      21.19601358       6.75247908       0.74196386      -0.74068868       0.97470512
O       12.94142798      21.31333840       8.96066316      -0.35224582       0.55391767       0.06031820
C       13.51239145      22.65816954       8.84336342       1.25010904       0.70040162       0.22501942
C       10.47334372      19.13618466       7.40419984      -0.07380567       0.13605104      -0.97005672
C        9.23479794      19.89832610       7.89175239      -0.17756148      -0.43880421      -0.06415797
C        8.59545360      19.28767061       9.13259009       0.12607296      -0.10518119      -0.68148930
C        8.34434624      19.74114654       6.68390214      -0.74397172      -1.00907918       1.00885775
O        8.54648543      20.41192834       5.68059162      -0.18361454      -0.34774295      -0.25977121
O        7.34787741      18.83180212       6.76644495       0.41637026      -0.45931516       0.01458386
C        6.44509370      18.92907434       5.66995484       0.53997652       0.35693947       0.26573279
C        9.60627246      21.37637687       8.12220822       0.43414972      -0.11195056      -0.27237961
C        8.46564964      22.39034004       8.43598049       0.68945565       0.24300660      -0.00551392
C        8.03323250      22.34540983       9.90608777      -0.52538163      -0.44462077       0.19340940
C        9.17866649      23.74344314       8.21131956      -0.24407019      -0.31008028       0.21387999
O       10.27329120      24.00899810       8.66374847       0.01410263       0.26801324      -0.16541198
O        8.40952994      24.67221063       7.61616954      -0.35609293       0.43696118      -0.40087822
C        9.12649900       0.75994873       7.39876893       0.00003593       0.27583126       0.44791457
C        7.22445486      22.27606096       7.52067346      -0.30903004       0.02527410       0.20381484
H       17.57819283      18.43420552       7.43012275      -0.13001221       0.15385149      -0.22251512
H       18.65111059      17.19361458       6.48537135      -0.11439571      -0.08719852       0.16962474
H       17.30572721      17.40687861       4.54100740      -0.33010856      -0.00197517      -0.04288114
H       16.10433154      16.79739386       5.53564632      -0.12380075       0.14241934       0.02815982
H       16.80464432      20.37193847       6.48473496       0.08779066      -0.21508686       0.04251305
H       17.58991862      20.06406230       4.96796611       0.10178037       0.03704353      -0.19698929
H       16.20979741      20.99849839       4.99586186      -0.01024644       0.02082729      -0.00657419
H       15.48355880      16.53339241       1.42601313      -0.31591852      -0.02838995      -0.06992653
H       15.18999121      18.42387102       1.36609648      -0.09571848      -0.20133887      -0.02800014
H       15.07976978      19.33570560       7.20690226       0.01433333      -0.11616612       0.04184624
H       13.12676286      18.27200201       4.21749978      -0.01080923       0.00682725      -0.04242714
H       12.40717142      19.55287667       5.20670854       0.03206555      -0.06821539      -0.08892826
H       11.66991609      17.89482784       5.14963988      -0.20700089       0.14142648      -0.05555872
H       13.38694409      14.12296063       5.58858013      -0.00814602       0.00188516       0.11548100
H       12.71218436      14.43517554       3.97403855      -0.01969256      -0.12810152       0.18212713
H       14.42259820      14.47697802       4.10731088       0.05702127       0.11513043       0.11616442
H       12.25237870      17.25572053       7.60448650      -0.04336997      -0.12878480       0.07926342
H       13.54064420      17.81392077       8.40194864       0.00859839       0.03200698      -0.16168532
H       11.50019232      18.01443176       9.70543500      -0.04595322       0.07686753       0.20474810
H       12.52163701      19.36231838      10.14786595      -0.10444565       0.09085480       0.08091937
H       13.17859754      23.08200832       7.91563841       0.19115531      -0.16720531      -0.19552354
H       13.10769599      23.20157198       9.64564675      -0.02460769       0.09971539      -0.03703691
H       14.57982128      22.66627579       8.95279355       0.03647312      -0.10762885      -0.15702800
H       10.27249268      18.10925061       7.57734012       0.14854742       0.02092588      -0.33124215
H       10.65471960      19.43745396       6.38070607      -0.05027771       0.13116050       0.04311727
H        7.55403029      19.48104985       9.03021290      -0.02675880      -0.07528748       0.00488403
H        8.78597732      18.22204120       9.21965627      -0.06701588      -0.03060063       0.13466622
H        9.02167635      19.76004471      10.03370331       0.09605498       0.09314562      -0.18332272
H        6.90899542      18.69870704       4.71219427      -0.05164093      -0.10757568       0.04543488
H        5.69497035      18.17510394       5.91068161      -0.11581238       0.07727323       0.07731114
H        6.00369089      19.95178169       5.66237191      -0.03933305      -0.02936716       0.04754500
H       10.18656599      21.76395455       7.27734045      -0.10036981       0.14334237       0.10725588
H       10.18981504      21.34100722       8.99607586      -0.01418808       0.15640372      -0.04410909
H        7.13371853      21.76362503      10.05675922      -0.07625097      -0.01074449      -0.13502553
H        8.86000721      22.15090756      10.55671962       0.04074272      -0.22347990       0.03186965
H        9.20836938       1.38060259       8.31136231      -0.22200300      -0.01972831      -0.02441533
H        8.54901370       1.34751225       6.69783630      -0.14648481      -0.26698410      -0.15847057
H       10.12645058       0.63354351       7.02156863       0.08392079      -0.04301323       0.16442296
H        6.92534957      21.24797662       7.52894122      -0.02105631       0.13278606       0.02353737
H        7.46812570      22.52792731       6.48056948      -0.00776532       0.01448324      -0.00528018
H        6.40993206      22.90422611       7.88977323       0.06576458       0.18239060      -0.08925665
C        8.77070730      10.21055482      74.77425331      -0.29913822      -0.66659929      -0.74727009
C        7.38297163      10.66810786       0.23998220       0.32432384       0.19566771       1.36804815
C        6.58447583      11.71302033      74.44321627      -0.03950665      -0.06436312      -0.12931895
C        6.50548229      11.13482731      72.99773202      -0.02625521      -0.60127273      -1.26520735
C        5.13289995      11.62863039      74.96885530      -0.56219535      -0.95547590       0.18317273
O        4.48107718      10.62092925      74.94233802       1.50676767      -0.95236307       0.47824478
O        4.64952732      12.82406175       0.34830513      -1.31658547       0.50497066       0.33732316
C        3.40980156      12.75777432       0.84424915       0.57125053      -0.50020630      -0.11905336
C        7.10670175      13.12746971      74.52449542       0.80700591       0.59800295       1.54455729
C        7.50423086      13.77612397       0.85480812       0.16507808       1.24132270       1.10584628
C        6.47287366      13.63552940       1.94769525       0.43231810      -0.21400807       0.51998318
C        8.78203852      13.26547977       1.20808094       0.71953925       0.39550535      -1.02878300
O        9.73068351      13.01543839       0.41495589      -0.24146931       0.49673656       0.16282875
O        9.01707884      12.92178353       2.55133107       0.96627568       0.33959435      -0.06937774
C       10.35262031      12.43712326       2.86109939       0.71172094       0.49258582       0.91376795
C        7.80229004      15.30463538       0.84204194       0.59998717      -0.56241288       1.02408135
C        8.92450114      15.92871557       0.14384601      -0.61547159      -1.75260059      -0.79577934
C       10.12602775      16.27876251       0.96787423      -0.40536627       0.44154091      -0.89032518
C        9.20736470      15.59614665      73.77651790      -0.08559793       0.73549739       0.42121066
O        8.35412448      15.36695810      72.99421997      -0.04882898      -0.29958878       0.90391930
O       10.53802624      15.58803806      73.35408511       2.41512067      -0.73434008      -0.52239840
C       10.75904894      15.48696426      71.91184634       0.53769080      -0.43179301       0.83510979
C        9.39958184      17.35037200       0.46864014       1.27459812       1.51127520       0.65496092
C        8.76385047      18.46966860       1.34799217      -0.27515166       0.55209992      -0.66611863
C        7.55312548      18.04247189       2.27544137      -0.28773845       0.60926986       0.10803343
C        9.94536073      18.83300716       2.22708847       0.95016504       1.24492289       0.30348372
O       10.05369611      18.48146313       3.38360721       0.12340288      -1.44866286      -0.22553494
O       10.85775221      19.54654030       1.53837002       0.75649442      -0.05859271       0.81235745
C       12.15855617      19.81624330       2.31449020      -1.20424224       0.34795089       0.55212498
C        8.33736759      19.69155009       0.61439354       0.40529016      -0.04957225      -0.48516279
C        7.09232815      19.93443245      74.77806970      -0.97668188       0.34081888       0.05970646
C        6.53024427      21.41155694       0.05541385      -0.80953050       0.44441012      -0.02353336
C        7.24385174      19.92879857      73.25982630      -0.18042990       0.27683633      -0.63869142
O        6.67352756      20.62010509      72.47455063      -0.64581838       1.17288789       0.49643712
O        8.10510653      18.93971410      72.90439336       0.49703094       0.20198467      -1.58509847
C        8.35093000      18.72931737      71.54951672       0.02363075       0.62586609       0.18151296
C        5.78181348      18.99617902      74.91449909       0.32504140      -1.07851949       0.49479872
H        8.79607344       9.94871142      73.69628120      -0.18156204      -0.01217667       0.10444297
H        8.99877398       9.35881912       0.39695333      -0.30585604      -0.19147686       0.06444773
H        9.50523051      10.97857279      74.97189858       0.16313554      -0.21388386      -0.02649576
H        6.66322175       9.87732676       0.27218708       0.26846162       0.09899890       0.21644768
H        7.52185708      10.98943036       1.25302520       0.00551845      -0.03881168      -0.30111122
H        6.15209799      10.12534125      73.02918523      -0.16617605      -0.25450041      -0.18323604
H        7.49137588      11.17141224      72.50859986       0.05720088      -0.12367968      -0.28674285
H        5.78397345      11.68319536      72.42642634      -0.13961486      -0.05829887      -0.14991830
H        2.98100307      13.73523876       0.83048428       0.04185664       0.02566362       0.09563300
H        2.94916911      11.78147335       0.65137617      -0.14989908      -0.21836787       0.17343367
H        7.81992800      13.35022786      73.71969614      -0.18330667       0.08944651       0.15276698
H        6.31972697      13.78016450      74.24075991       0.24459589       0.09872046      -0.05369196
H        6.95299978      13.95812452       2.85967865       0.19223430       0.12576441       0.10020637
H        5.63593846      14.24847077       1.73560923      -0.13074734       0.16244160      -0.13938538
H        6.17897975      12.63395547       2.20701817      -0.22725771      -0.08082757       0.04801175
H       10.99665239      13.32038207       3.08926615       0.02637215      -0.00038392       0.14064455
H       10.76775026      12.08401066       1.92219672       0.01783542      -0.34508798       0.04541033
H       10.42889950      11.69756350       3.68418456      -0.05437117      -0.03000067       0.13366728
H        6.89100373      15.73416971       0.41152832      -0.11626465      -0.27081138       0.11087725
H        7.77949335      15.58664176       1.88860454       0.01865097       0.17521581       0.13445187
H        9.96316957      16.05972261       2.04054520       0.09643695       0.13021540       0.12513847
H       11.06771746      15.78737380       0.62570407       0.03825808       0.22433182      -0.14283887
H       10.81682928      16.47845869      71.49153540       0.00599624      -0.22728572      -0.26045701
H       11.77222314      15.07519818      71.80373013       0.05826753      -0.24040782       0.06048459
H        9.97411527      14.86018463      71.46783574       0.32770683      -0.27594537      -0.13465067
H        9.89589064      17.82151531      74.65906473       0.35640991      -0.29035655       0.05271364
H        7.06047271      18.80376370       2.89245698      -0.25583038       0.14091362      -0.30252482
H        6.78237164      17.53395608       1.72265875       0.12662802      -0.05290202      -0.05763354
H        7.92048064      17.36796596       3.02133448       0.02966106      -0.28372425      -0.21794576
H       11.87186068      20.20884004       3.27379976      -0.07722607      -0.06924069       0.13992632
H       12.75246161      20.47280207       1.74440666      -0.17810656       0.05583237      -0.01699339
H       12.67516233      18.86927058       2.41243031      -0.18137409      -0.08792943      -0.04098236
H        9.12146945      20.00133641      74.88829654      -0.39117671       0.26378950      -0.05946061
H        8.35005897      20.46235888       1.34495653      -0.29926982      -0.03885418       0.09738996
H        6.46040586      21.57864688       1.14185638       0.01425057       0.05943325      -0.08058736
H        7.20339604      22.27226104      74.69022814      -0.24172670       0.09685861      -0.09750496
H        5.60363917      21.59532177      74.63584242      -0.08379039      -0.33025870      -0.24578087
H        7.45812841      18.67449773      70.94053779       0.07501025       0.13800111      -0.13918692
H        8.98243989      19.49321364      71.10545040       0.22662708       0.04053773       0.14136968
H        8.85882871      17.77547933      71.44091050       0.14668858       0.14722608      -0.04392718
H        6.04417251      17.91113945      74.70052210      -0.13609833      -0.30939671       0.11388835
H        5.33453363      19.07222269       0.93092418      -0.05877820      -0.25132965      -0.01855113
H        5.07348555      19.36254885      74.24281390      -0.14706335      -0.25181985       0.37774276
C       24.37324642      15.47940338       1.11306473       0.28389915       0.16473047       0.98162416
C       23.50031791      15.97431241      74.95168018      -0.77643370       0.25861405       0.00286357
C       22.91197430      17.40249905       0.01342048      -0.42128134       1.14196072       0.92473716
C       24.04518569      18.41328579       0.14191410       0.13670258       0.29115869      -0.67477111
C       22.05713545      17.49717708       1.25706048       0.41396839      -0.43144619       0.55842924
O       21.25212748      16.69006184       1.58042135      -0.97239424       0.35893057      -1.41172040
O       22.45257897      18.65006274       1.98686810      -0.25665432      -0.58278869       1.28655479
C       22.50575503      18.59290119       3.17583228      -0.59972100      -0.81614575       0.26554876
C       22.07385276      17.65878465      73.80163641      -0.77041738       0.31142636      -0.24921349
C       20.92864313      18.64447130      73.81461327      -0.48399584      -0.35528069      -0.87298685
C       19.81187076      18.25432411      72.73116545      -0.00739934       1.46878233      -0.25084247
C       21.18961812      20.15031287      73.99881901      -0.14267281      -0.03104543       0.91990104
O       21.80486048      20.62508561      74.93659549      -0.10825076      -1.32123706      -0.32709548
O       20.71716701      20.87288285      72.92310050      -0.42864107      -0.79161652      -0.12581806
C       21.06305584      22.25585140      73.00712689      -0.49470627       1.86337228       0.49749145
C       19.58270849      17.97274695      74.15355239       0.67431417       0.91368996       0.31759283
C       18.36788589      18.44031927      74.99598509      -0.93843809       0.05153792      -0.67246990
C       17.26057800      17.57282223      74.45390201       0.08766014      -1.25966146      -0.98992834
C       18.65422976      18.03935721       1.42785636      -0.17792601      -0.85668437      -0.26592970
O       18.27620638      17.08987900       2.01324976      -0.73455998      -2.21592643      -0.29837014
O       19.39195324      18.99953302       2.02370717      -0.44273281       0.34163542      -0.31956864
C       19.53823470      18.80275416       3.43842044      -0.45522828      -0.60981712       0.06267656
C       18.00724645      19.91609521      74.98315469       0.28632012       0.95073940      -0.12098975
C       16.97613496      20.72758909      74.04174312       0.25274445      -0.78808387       0.73135553
C       17.08220434      20.35896002      72.58456563      -0.46465062      -0.22210795       0.92171568
C       17.28998346      22.21827344      74.32448639       0.21952673      -0.57474268      -1.10870755
O       17.99956541      22.93196908      73.62805735      -0.46217014      -0.42030324       0.44953617
O       16.54413786      22.65154174       0.31858180      -0.52595958      -0.65629629       0.70464467
C       16.48628663      24.05228227       0.47693163       0.22324745      -0.59401246       0.07238513
C       15.50356643      20.48049723      74.50026286       0.54052881       0.80589663       0.55595120
C       14.31562162      20.97665001      73.57254006      -0.10012784       0.03526432      -0.54100012
C       14.45118021      22.36844993      73.33951257      -0.37006075      -1.00120719      -0.10373095
C       14.28757055      20.09237558      72.34662703       0.63050038       1.10727047      -0.08102773
O       14.08826885      18.90104274      72.44545599      -0.32162283       0.74216667      -0.06489330
O       14.53457096      20.72071335      71.19710575      -0.25832576      -0.50295641      -0.23719827
C       14.54899884      20.05179016      70.08476164       1.07036458      -0.07576615      -0.02504466
C       12.99740068      20.70364502      74.40507582       0.99621941       0.37584041       0.44248511
H       25.00715255      14.67587474       0.89182782       0.07508301       0.07924369       0.18257169
H       25.05975568      16.31354527       1.39391691       0.18081318       0.05228857       0.34914957
H       23.88926695      15.27761325       1.99827334      -0.24402706      -0.19847374      -0.21831081
H       24.00919598      15.74200123      74.00911693       0.35745831      -0.05893822       0.08625754
H       22.64553604      15.32701255      75.00845191       0.15242272      -0.16875150      -0.26690102
H       24.91892811      18.19343591       0.71261774      -0.33502288       0.22104145       0.09423780
H       24.33640454      18.46861821      74.16418797       0.13317244      -0.29243106       0.36280034
H       23.77411909      19.42531533       0.37328949      -0.04230137       0.03401219      -0.06799757
H       22.56969278      17.66457814       3.64438621       0.14524459      -0.07914192       0.13640933
H       22.51549676      19.43249527       3.84886987      -0.25652526       0.03112918       0.30100128
H       21.70081276      16.68171784      73.40766979      -0.31926954      -0.00233882      -0.01009707
H       22.82639882      17.89882248      73.04107146      -0.00404080       0.13298720       0.02296913
H       20.03575909      17.49705897      72.06537664      -0.23156418      -0.19979007       0.07330954
H       19.22985629      19.10516325      72.26972004      -0.20234299      -0.06250179       0.00721211
H       20.59939667      22.74865503      73.83371932      -0.12187538       0.00546859      -0.03034258
H       22.10285299      22.38848921      73.08736415       0.15471276       0.17832472      -0.13477201
H       20.59478663      22.71216214      72.14454801      -0.10410615       0.05100289      -0.02782483
H       19.71039982      16.92080387      74.42492682       0.16591630       0.11141609       0.22748995
H       17.45910132      16.52930882      74.67719346      -0.42103653       0.10042262      -0.10974398
H       16.18149601      17.84626584      74.56838376      -0.05451414       0.19596247      -0.01387309
H       17.45991361      17.51854144      73.39954371       0.27635512       0.16147842       0.00165858
H       18.56969117      18.66465586       3.95950848      -0.29291463       0.03634184       0.01899129
H       19.96417600      19.71563004       3.85199281      -0.18427755       0.12685652      -0.10355657
H       20.05841077      17.91041465       3.69852736      -0.18040653       0.02082961       0.05492981
H       18.99328827      20.41300014      74.76180534      -0.07482084      -0.08025636       0.01541667
H       17.73734253      20.25773072       0.98017214       0.22980614       0.10196753      -0.38813821
H       17.52750458      20.98049275      71.80597874      -0.13908768       0.05051287       0.14408079
H       17.02288299      19.29677727      72.43945518       0.15252780      -0.05262989       0.08799210
H       17.47665724      24.48230979       0.70867885       0.04301555       0.07928906       0.14626725
H       16.19809357      24.47465136      74.53962143      -0.01497285       0.04129858       0.06596646
H       15.77047185      24.24604405       1.27408486      -0.11341049      -0.04539115      -0.02807394
H       15.50117669      19.38362632      74.54558667      -0.25158894       0.05607928      -0.10252949
H       15.27560180      20.79213906       0.48409351      -0.08506198      -0.03385118      -0.06564416
H       14.47636074      22.71808359      72.36783634       0.31551140      -0.29793372      -0.01231200
H       14.42993686      23.07269721      74.21559286       0.07509635       0.04575405      -0.19127468
H       14.52683624      18.96450700      70.07118073      -0.14415990       0.00824071       0.28563226
H       14.64954287      20.75099934      69.23568470       0.25782022      -0.17028405      -0.03399595
H       13.20975930      19.63010161      74.56493162       0.06747288       0.12711413      -0.07933936
H       12.21338844      20.55850249      73.66498996      -0.17987424      -0.03250455       0.07822565
C       16.25617117      23.71505923      70.25451457       0.09191432      -0.87319701      -0.38583695
C       17.40862849      22.86228607      70.05809658      -0.33517603      -0.05307051       1.08000732
C       18.39856003      23.27532254      68.86425242       0.24177367       0.18478235       0.30304959
C       19.57798257      22.34655880      68.83656977       0.46420437       0.28859267      -1.08366719
C       18.99177149      24.61622245      69.21047129      -0.49138294      -0.25205177       0.96532351
O       19.49541539      24.80209268      70.32832357       0.25943219      -0.15303923      -0.06225184
O       19.04939816       0.39874228      68.24832795       0.60529883       0.17940474      -1.55575605
C       19.62957088       1.72895551      68.54044766       0.01319821      -0.44507691      -0.12438342
C       17.82493111      23.39375437      67.46756432       0.20639550       0.37316843       0.09889459
C       16.96233681      22.24222636      66.83059770       0.08427159      -0.02680173       0.48803734
C       15.51933026      22.30331825      67.27751932      -0.20585442      -0.20734219      -0.55420912
C       17.64922253      20.85607313      67.21743799      -0.25972422      -0.08069401      -0.46528998
O       18.60713850      20.41866449      66.58066937       0.92114159       0.46942606      -0.62009803
O       17.12759626      20.29316832      68.25559615       0.99505694      -0.45915966       0.73448842
C       17.75432912      19.15631595      68.90148109       0.12428471       0.25327435       0.27260657
C       17.02120390      22.20665404      65.21556971      -0.36970147       0.18666283      -0.33885695
C       16.27179456      23.27965331      64.35208203      -0.44857405      -0.39928775       0.29608398
C       16.52619959      24.77701241      64.76602526      -0.12868836      -0.21350895       0.55540109
C       14.79066997      22.93992760      64.22841732      -0.36542756      -0.34652439      -0.03332767
O       14.21280460      21.96759487      64.59748174       0.53937512       0.10743001      -0.91745899
O       14.22760415      24.00057352      63.57212813      -0.51596676      -0.27744831      -0.18963284
C       12.82274141      23.78345712      63.31553826       0.51674272      -2.45213882       0.55098984
C       16.60252113      23.11737208      62.90916535       0.21761010      -0.70785585       0.78965723
C       16.85479209      21.87181960      62.08113983       0.12978411       0.95415891       1.09460913
C       17.89540037      20.83605418      62.58257111       0.47068944      -0.12340877      -0.48831932
C       17.34734115      22.57518159      60.78251828       0.15718893      -0.23199807      -1.09890878
O       16.63390905      23.15621229      59.99868794       1.21676845       0.93896040       0.74147109
O       18.65168277      22.59598574      60.81005006      -0.78582408       0.17144554      -1.50182682
C       19.28472838      23.52843316      59.92978400       1.19602330      -0.25606447      -0.16603608
C       15.47210684      21.37293753      61.92863063      -0.33282449      -0.75018287       0.32971549
C       15.10179805      20.01321349      61.35017117       0.53529564      -0.28092794       0.09680177
C       15.80408185      18.73610325      61.93508035      -0.17155628      -0.06965055       0.12554328
C       15.60387883      20.05654880      59.84114652      -1.10070613       0.53891815      -0.13384865
O       16.74313950      19.77429891      59.46322274       0.14906727      -0.39289994       0.30168111
O       14.61276837      20.41481295      59.00907095       0.45433320       0.26663164      -0.33963554
C       14.98229373      20.75503371      57.68662612      -0.24816675       0.72172599      -1.04476825
C       13.61691856      19.90940182      61.45568578      -0.32685240      -0.37566328       0.24747671
H       15.41824655      23.36446141      70.83053358      -0.22853046      -0.08484156       0.20986795
H       16.07036482      24.73646978      69.77231660      -0.27552951       0.25975941      -0.13977718
H       17.91259069      22.74566871      70.96207061      -0.14865759      -0.02803453      -0.11368500
H       17.05742813      21.87444264      69.80234243      -0.20308344      -0.07061292       0.12688269
H       19.89933694      21.97940771      69.77754771      -0.20760281      -0.03823629      -0.26125294
H       20.37194382      22.67202510      68.14171997      -0.21503050       0.06479362       0.00984519
H       20.67242775       1.56685709      68.87751680      -0.11417884       0.24788289       0.35401458
H       19.67158259       2.38594055      67.69936793      -0.16693839      -0.03653134      -0.03182910
H       19.12164970       2.15260403      69.38865360      -0.04418419       0.06703052      -0.08900604
H       18.65843192      23.48844789      66.80286964       0.14793819       0.13211507       0.12616011
H       17.28633729      24.34914506      67.42479698      -0.01835977       0.06318182       0.29106225
H       15.09295476      23.25437485      67.59259295       0.18843599      -0.12899726       0.12749414
H       15.05001553      21.37163397      67.42398517       0.02024523       0.06677239       0.05233918
H       18.36654091      18.62949208      68.17243047      -0.03004284      -0.11408787      -0.03396275
H       16.97680694      18.52505494      69.28796272       0.13828259       0.05782731       0.00759439
H       18.35559374      19.57901949      69.70924771      -0.00701540      -0.13631966       0.05188230
H       16.70405488      21.23520927      64.89256906      -0.05787497       0.04951013      -0.13207294
H       18.07942322      22.23011378      64.96467893      -0.00704943       0.14142277      -0.27053317
H       15.73115397       0.24229439      64.24214236      -0.31063751      -0.04806888       0.05459160
H       16.25931108      24.88329556      65.85566931       0.37876535       0.17854417      -0.06645394
H       17.48728637       0.07268806      64.58892445      -0.09557197       0.23257629      -0.18339528
H       12.41098184      24.70158069      62.96335298      -0.24671610      -0.24502790       0.07962635
H       12.77838756      22.99577615      62.56685728       0.24350979      -0.26646569       0.20330535
H       12.33195942      23.56657986      64.22884416       0.00032557      -0.15030639       0.07499995
H       16.24950827      23.91638326      62.28243211       0.10139552       0.00004366       0.03388292
H       18.02949558      20.04882407      61.83962620       0.13547458      -0.02226415       0.06262267
H       17.68267083      20.44222008      63.55412435      -0.06617608       0.01441086      -0.03254485
H       18.84759112      21.35260127      62.66950914       0.02456091       0.12170709      -0.04644903
H       20.36594802      23.43980554      60.06132993       0.02082978       0.34129756      -0.09587927
H       18.93331701      24.54237067      60.10347678       0.22781705       0.01235856       0.01487523
H       19.06112624      23.40950137      58.87804212      -0.16592288       0.19293098      -0.10166219
H       14.88393915      22.16326163      61.46206002      -0.03950847      -0.12293118      -0.03683607
H       16.85799364      18.68162427      61.70031655      -0.02359882      -0.11398705      -0.01550850
H       15.35308264      17.85343705      61.50054403      -0.18602909       0.00680227       0.10022401
H       15.69389662      18.64075948      63.00521735       0.07035046      -0.08166620       0.22816189
H       15.38234494      21.72377217      57.77570215       0.02190321      -0.01443026      -0.02394126
H       13.98102845      20.90108654      57.17578479       0.01627626      -0.01593657       0.08554091
H       13.28168970      20.66101956      60.71163031      -0.10194915      -0.12130433       0.02031258
H       13.45519454      18.99455003      60.90845415      -0.28074392      -0.04280853      -0.03375878
C        8.37341077      22.93767007      68.80398656       0.41158497      -0.58796843       0.47741057
C        9.66432075      23.45281688      69.16732355       0.29007790       0.37468573      -0.66395947
C       10.58515604      22.85238542      70.14131200      -1.09470782      -0.21175508       0.24757374
C        9.75229871      22.33815250      71.35888273      -0.38934683      -0.01421485      -0.14379619
C       11.12623190      21.62532435      69.44885464      -0.22235527      -0.06988248       0.05238060
O       10.88343580      20.45905244      69.71811793      -1.07717627      -0.16269011      -1.96042674
O       12.08450848      21.84582433      68.53740987      -0.28800671       0.27913589       0.00852905
C       12.64859665      20.81030829      67.79577329       0.06337864       0.97788346       0.42459252
C       11.89180931      23.56405281      70.55730667      -0.37418919      -0.16030444       0.04389767
C       11.76848628      24.92668561      71.27872997      -0.19257975      -0.30032144       0.73455506
C       10.87244586       0.70360765      70.45083339      -0.12726298      -0.24929587       0.82262665
C       11.06524192      24.83208378      72.65969274      -0.17443842       0.44625349      -0.11301484
O       10.04425523       0.30842046      72.90868097       0.67440208       0.19289098       0.23106243
O       11.56655181      23.84477990      73.46732448      -0.44204339       0.62904311       0.14596062
C       10.76608463      23.66356591      74.67438687       0.75935020      -0.08846673       0.28716670
C       13.15465198       0.23925224      71.43079164      -0.18725390       0.40914719       0.36091085
C       13.83419738       1.55232528      71.90332239      -0.02115987       0.10376981      -0.26195991
C       12.94617247       2.32075077      72.84780947      -0.46684306       0.15389176       0.44861415
C       13.93988244       2.28200640      70.51409258       0.32624348      -0.16194237      -0.29096726
O       13.22920496       3.17433033      70.16819309      -0.54437214       0.13055997      -0.11672472
O       14.87663798       1.76350917      69.70250750       0.11732552      -0.57627138      -0.96420086
C       15.20938899       2.51983258      68.57247876      -1.08160621      -0.53665723      -0.40829352
C       15.23979636       1.34185253      72.32528401       0.85885861       0.19968228      -1.16245041
C       16.24082381       2.37325290      72.72448697      -0.45633012       0.09667417       0.01378096
C       17.60479478       1.65555960      72.69992842      -0.69773837       0.52404760       0.16834237
C       15.95747965       2.96558397      74.10881496       0.14611512      -0.54015873      -0.83119083
O       15.00510369       3.67089894      74.37738670       0.75723460      -0.29638048       0.94734657
O       16.64994490       2.53774402       0.17672184      -1.06520089       0.48778407      -0.52336319
C       16.37538509       3.11383611       1.42391617       0.41534650      -0.42717952      -1.21742632
C       16.31310498       3.49722541      71.72054842       0.60915162       0.76769460      -0.03864348
C       17.32632064       4.79322810      71.87952618      -0.13913076      -0.12990738       0.02131499
C       18.61571715       4.53143765      70.99109581      -0.13114514      -0.18820867      -1.10053978
C       16.49282877       5.85612313      71.20127565       1.09066387      -0.64045244      -0.83147941
O       16.60997896       6.08517812      70.02534847      -0.89729401       0.08408569       0.22285820
O       15.48307727       6.36013032      71.90838750      -0.48350679      -0.34476626       0.00662763
C       14.39195642       6.80639589      71.09487777       0.55133055      -0.73314378       0.50835048
C       17.72732981       5.40315218      73.18121060      -0.17908698       0.80426470      -0.24720544
H        7.91088893      23.41964748      67.92758558       0.04848850       0.11243131       0.04792658
H        7.69565519      23.02658112      69.69225190      -0.04605083       0.20608512      -0.10793103
H        8.39835260      21.88223856      68.49494320      -0.01245676      -0.03798831      -0.07590835
H       10.08368267      24.31009943      68.62394931       0.03353587       0.12382736       0.07989369
H        9.28304715      23.10445916      71.92024644       0.19111034       0.01314192      -0.02367247
H       10.38026401      21.68283360      71.97308692       0.15205395       0.08274889      -0.24380859
H        8.93855846      21.67556873      71.14209337       0.00101536       0.13067124       0.16798047
H       13.10905445      21.57597384      67.05776237      -0.30480846       0.33276836       0.31172226
H       12.45404754      22.88724128      71.25272086      -0.04657487      -0.03052616      -0.06918359
H       12.46783975      23.57728460      69.65250406      -0.15060636       0.13005182      -0.03438464
H       11.25213736       0.97989612      69.48953837      -0.02358027      -0.09974599      -0.04154007
H        9.85019936       0.34076554      70.47381798      -0.06233662       0.10311383      -0.06110456
H       10.84294897       1.64836248      70.98010221       0.00169311       0.03936717      -0.12317172
H       10.71105963      24.58921830       0.26218352      -0.05090567      -0.04481582       0.36779236
H       11.40381604      23.03712971       0.19240008      -0.23123896      -0.22177467      -0.01750744
H        9.80652015      23.23002166      74.53944320      -0.22634355       0.14657558       0.19288725
H       13.85068958      24.58390490      71.16970487       0.03948238      -0.27209793      -0.12231650
H       12.79994251       1.73755754      73.77929794       0.16124851      -0.24273009      -0.01082390
H       11.93206042       2.28615958      72.36870571       0.31847786       0.05681453      -0.18903139
H       15.76676358       3.38571570      68.91705819      -0.02942912      -0.25089139       0.03119445
H       14.38043519       2.85887350      67.95380867      -0.08542367       0.24586328       0.05925286
H       15.88144741       1.92959441      67.96761938      -0.17386373       0.11307732      -0.11398543
H       15.68721190       0.59381769      71.67621107       0.09650669      -0.18575720       0.22026090
H       18.36684745       2.15076159      73.33162243      -0.23125139       0.03445777      -0.01459498
H       17.98025374       1.50749715      71.69259091       0.07333214       0.08179387       0.08752910
H       17.55277491       0.65133423      73.13418948      -0.00416643      -0.00672672       0.12035252
H       15.32147464       2.90878638       1.76802745      -0.22761105       0.27942715      -0.06792019
H       16.99588164       2.61829096       2.18854802       0.02347664      -0.23205160      -0.23586581
H       16.55820935       4.18521798       1.38056448       0.02030883       0.01522255       0.02374677
H       16.45407994       3.09964510      70.71917203       0.00164519      -0.36916505       0.12832098
H       18.30168379       4.38293451      69.95226927      -0.01825226       0.10660821      -0.16739245
H       19.13903952       3.64300775      71.33218847      -0.18199569       0.05791020      -0.02327686
H       19.27464268       5.37130926      71.07160488      -0.19967352       0.08221737      -0.09277989
H       14.13762883       5.98527282      70.45408599       0.20291186      -0.17163320      -0.15001166
H       13.61297412       7.24991410      71.71017261      -0.07004498      -0.36917837      -0.10353339
H       14.75156371       7.57644424      70.39234627      -0.06628199       0.22159920       0.23465414
H       16.99577851       5.91308706      73.75910661      -0.06672987       0.04186871      -0.03066189
H       18.62171903       4.97631642      73.66642950      -0.15282115      -0.19009782       0.13652348
C       18.27328946      10.39189899       6.74553486      -0.57184322       0.70691156      -0.09850525
C       18.99409526       9.34934964       5.91436904       0.25929563      -0.76462100       0.21363822
C       18.98803545       7.91247915       6.57921337      -0.11481303       0.47358910       0.30069061
C       18.94454561       7.92988954       8.01332149      -0.55091882       0.99578776      -0.28847664
C       20.28526070       7.19228342       6.15189508       0.17299832       0.03188693       0.89422624
O       21.01592591       6.54451959       6.84661098      -0.79486486       0.28132243       0.23020762
O       20.54943019       7.38502262       4.83328192      -0.08348378      -0.61377638       0.22717211
C       21.83096579       6.94989716       4.41591774       0.25822935      -0.39133232      -1.04998544
C       17.72037058       7.14315961       6.01258538       0.52248428       0.05982159       0.12494740
C       17.23404177       5.78334448       6.43127607       0.77481834      -0.72243138      -0.26508920
C       18.38186806       4.71275193       6.54372274       0.42413425       0.07907364      -0.54252581
C       16.43702148       5.91796185       7.71905002       0.00650269       0.38220117      -0.41851355
O       16.15989652       6.93121885       8.25285469       0.63069910       1.11870380      -0.64250682
O       16.03308029       4.73242629       8.10479442      -0.79661983       0.40755626      -0.98111957
C       15.12695154       4.75056419       9.24125441      -0.13898399       1.55868063      -0.20937081
C       16.29004851       5.28232912       5.24697620       0.53509316      -0.29117301       0.64448574
C       14.91513439       5.90607151       4.90321262       0.12121359      -0.51799246       0.28426216
C       14.14793415       5.20074215       3.84198941       1.12437501      -0.70876974      -0.43583171
C       15.10518391       7.37640777       4.46809599      -0.49737488       0.36383360      -0.57226789
O       15.40109652       7.73711492       3.36947660       0.25059194       0.12193488       0.40846594
O       14.85141423       8.21910676       5.45690641      -0.55104172       1.01443751      -0.51691119
C       14.78349488       9.59781501       5.20244359       0.04557782      -0.17016877       0.16358665
C       13.94556075       5.91824869       6.11448286      -1.00773714      -0.04924878       0.63300353
C       12.43775486       6.23374812       5.96330339       0.02230817       0.96547876      -0.75061048
C       12.13551791       7.26198341       4.89674723       0.52572356       0.51374856       0.11674545
C       11.74672128       4.85922239       5.60410933       0.56496952      -0.40551340      -0.42237692
O       10.97256082       4.66673631       4.70132762       0.30707390       0.71698227       0.15925650
O       12.26687171       3.91367431       6.40250201      -0.14530735      -0.46209045      -0.43396835
C       11.82543046       2.55235462       5.87719021      -0.04456920       0.31438071      -0.44337100
C       11.94225917       6.49038057       7.44577261       0.20214922       0.26275769      -0.87297752
C       10.53148748       6.92492575       7.78593430       0.93197750       0.14977676      -0.35240846
C        9.55469843       5.84835688       7.41859738       0.62511382      -0.34819726      -1.27399131
C       10.33767908       8.22651492       7.05226907      -0.72712096       1.18549055       0.71235037
O        9.26606938       8.71517879       6.73015656      -0.02501874      -0.29152583       0.07825106
O       11.49129633       8.85356541       6.94793613      -0.28978471      -0.17237531      -0.21106369
C       11.67365414      10.14053044       6.54688443       0.51521113       0.61536053      -0.30628406
C       10.47149333       7.14853820       9.30829852      -0.31179960       0.05654637       0.53802696
H       18.86583595      10.80873070       7.55635591       0.06870553       0.02911685      -0.03402341
H       18.02442654      11.17996422       6.03620539      -0.27828950      -0.01682049       0.02250118
H       17.40017170       9.92907611       7.22357481       0.13024193       0.18480097       0.06094302
H       18.61413020       9.28072343       4.90933091      -0.13501479      -0.02299260       0.08551099
H       20.02262029       9.73421842       5.84762817      -0.15371778       0.24461529      -0.07285264
H       18.04603677       8.22337734       8.51898946      -0.05724949       0.07844811       0.13735780
H       19.83080617       7.58147894       8.52982715      -0.21327660       0.14519582       0.29606453
H       22.59136406       7.67216368       4.77267058       0.00641913      -0.16853130       0.06390012
H       22.10208774       5.96621954       4.81815864       0.12462361       0.03489139      -0.20810779
H       21.81058307       6.92996895       3.33426407      -0.11175243      -0.03967767      -0.00814484
H       17.99621366       7.02309588       4.94402166      -0.28003603      -0.03542585      -0.18080722
H       16.88377967       7.84716054       6.00955051      -0.01918820      -0.12119950       0.11210175
H       18.74260796       4.95948042       7.61179931       0.01168265      -0.10079327       0.02615908
H       15.61530895       5.29980042      10.04473279      -0.06193343      -0.00706501      -0.22734889
H       14.19900721       5.22946434       9.01803784       0.04539720       0.09430167      -0.26187702
H       14.89888136       3.70870952       9.47655930       0.17164052      -0.10059291      -0.12136787
H       16.84061338       5.48583773       4.32962979      -0.26066049       0.15017912      -0.03233869
H       16.18331375       4.20205624       5.32902414       0.12808621      -0.03626031       0.12623491
H       14.52892796       4.16639550       4.06888991       0.20835051       0.02580554       0.16695441
H       13.88363611       9.93118573       4.73132699       0.06762214      -0.12560720      -0.12532532
H       14.93032908      10.08406802       6.14437146      -0.10004398       0.03221156       0.00963951
H       15.59725173       9.90102769       4.55388046      -0.09694662      -0.04222545      -0.07240862
H       14.37196303       6.64615217       6.78263823       0.03852368       0.00752292       0.00661487
H       14.05860217       4.96676681       6.65486898       0.22068499       0.09379196       0.12522937
H       11.11501866       6.90249565       4.59767660       0.16257178      -0.00653606       0.08228908
H       12.75447333       6.93622559       4.06943129      -0.15892017      -0.11717545       0.15954211
H       12.17964348       1.83517383       6.58668380       0.06136367       0.27814547       0.09681690
H       12.30718460       2.48329703       4.95549947       0.10617724       0.02635393       0.02070259
H       10.73235408       2.50692551       5.84489677      -0.07984042      -0.06085352       0.04032248
H       12.50186204       7.35830012       7.82780180       0.15616239      -0.18570863       0.05956661
H       12.27050463       5.55026032       7.95774278       0.06375487      -0.05404776       0.07158732
H        9.43963528       5.95691101       6.34621912      -0.20261167       0.18247148       0.07067922
H        8.57069999       6.23706560       7.81340570       0.14737769      -0.02056762      -0.07467693
H       12.70082233      10.18744271       6.91084974      -0.13879520       0.09509148       0.04509499
H        9.42843314       7.38802520       9.49305979      -0.05204188       0.05932873       0.03263274
H       10.67975685       6.24253847       9.84608124       0.02238220      -0.04370729      -0.28774443
H       11.09612413       7.99364590       9.57705730       0.08236733      -0.03436168       0.05306961
C        7.57367544       8.66392002       4.19841308       0.75590939      -0.39585617       0.33925718
C        6.23682511       9.28904537       4.04693480      -0.23212689       0.46176782       0.10758021
C        4.86246619       8.91361509       4.00822366      -0.28900958       0.46055239       0.01415559
C        5.52931554      10.33671664       3.58344810       0.26092549      -0.83123999       0.64318522
C        4.57887150       8.09343009       2.76958380       0.01791039      -0.77330350      -0.53623045
O        3.73695998       8.30808505       1.95209945       0.61445573       0.51001002       0.07274931
O        5.56900513       7.12137681       2.56742873       0.81047718      -0.55858821       0.06015688
C        5.40553354       6.37239043       1.56364602      -0.41071042       0.90633398      -0.05801161
C        3.87779920       8.58002188       5.15038488      -0.05016536      -0.01611745      -0.34273849
C        3.98829258       7.03966337       5.67330440       0.23450769      -1.45480566       0.08607159
C        4.18472069       6.15844480       4.47844803      -0.14873642       0.45554574       0.83831117
C        5.33582776       6.91834586       6.47118726      -1.13057860      -0.79056766       0.31190309
O        5.94460741       5.84973502       6.68180628       0.29120762       1.33097132      -1.02046074
O        5.67033987       8.08340508       7.01034486       0.00514056      -1.70184479      -0.11574209
C        6.69072905       8.26128100       7.94821088       0.95583226      -0.47031141       0.37253005
C        2.78313043       6.59477714       6.60887765      -0.31597314       0.51640615       0.70351775
C        2.25972411       7.55440162       7.69047419      -0.32298058       0.85747390      -0.71320839
C        3.25171478       8.36261905       8.56700075      -0.22493397      -0.99120511      -0.06374161
C        1.23362899       8.50383737       7.05740596       0.03020319      -0.04826554      -0.14768887
O        0.52958241       8.22861876       6.18055549      -0.87093858      -0.12650284       1.34714454
O        1.20389372       9.66425228       7.77576220       0.06999792       1.65731885       0.45808143
C        0.03383063      10.47544904       7.50663996       1.45273573       0.81465263      -0.25155083
C        1.49520061       6.65208928       8.71874952      -0.50485126      -0.21933284       0.64941464
C       25.05901068       6.71407161       9.12228273      -0.11541992      -0.38423099      -0.23267832
C       24.13693844       6.55856394       7.93040572      -1.11394654      -0.50010624      -0.07346343
C       24.87269648       5.40461097       9.91474126       0.98099836       0.10873781       0.60578336
O       24.05586415       4.52592590       9.70427408      -1.18952826       0.45739104       0.87641745
O        0.58435089       5.46687095      10.93158826       0.58297739       0.46885214      -0.63754536
C        0.44605682       4.39594709      11.88446578       0.01999759       0.75297000       0.50636890
C       24.79427799       7.89575793       9.92085990      -0.31337185       0.47190922       0.79883303
C       23.42932053       8.13102387      10.51457706      -0.46308211      -0.59661182      -1.13246813
C       22.28132251       8.24533469       9.56618010      -0.48584446       0.32434131      -0.48841488
C       23.47746742       9.58539582      11.13706340      -1.37354139      -0.18596044       0.89425188
O       23.30628315      10.62502820      10.53036653      -1.16071679      -0.59355597       0.95149007
O       23.76301638       9.65330118      12.42615297       0.98695195       1.52893280       0.39359996
C       24.04953096      10.86147289      12.97112970      -0.63829175       0.01364101       0.12099908
C       23.02975658       7.14141926      11.66534370       0.16916370       0.35456818      -0.88971854
H        8.42415462       9.33844140       4.08561828       0.06227614       0.00560047       0.20282900
H        7.70864368       8.24881400       5.18552492       0.08863651       0.11980203      -0.21566513
H        7.72309963       7.86944524       3.49549873      -0.07851965      -0.37733752       0.05329168
H        4.92736973      11.06945842       3.98182568       0.21037838      -0.01659225       0.06613238
H        5.47108656      10.64551091       2.52936167       0.11494564       0.04760813      -0.12088552
H        4.38435224       6.30182517       1.12958157       0.21231263      -0.40505104      -0.11169972
H        6.21898364       5.69713741       1.25353611       0.10310989       0.30927235       0.08053485
H        2.81878913       8.65294342       5.01943167      -0.09801136       0.15920833      -0.16984209
H        4.14831823       9.24216190       5.97009192       0.02249739      -0.14156259       0.05806373
H        3.15188415       5.95934597       4.24040252      -0.01590658       0.04153106      -0.04514282
H        6.31906016       9.26658848       8.21424589      -0.14999791      -0.09929144      -0.10194625
H        1.88480679       6.40465025       6.00658099      -0.11997353       0.18221924       0.11405949
H        3.10153111       5.65412846       7.03610320      -0.10690231      -0.00044847       0.44882600
H        3.59163327       9.24445733       8.10371807       0.06434791       0.01191903       0.15781890
H        2.68957396       8.82880402       9.44853292       0.06710136      -0.19357643       0.07077072
H        4.10000656       7.82610746       8.86780003      -0.38549824       0.03306632       0.13247617
H       24.39656387       9.88784638       7.15054825       0.08745828       0.20853424       0.04753799
H       24.86367870      10.83147235       8.50404365      -0.14966757       0.07915335       0.09008432
H        0.23914033      11.33788647       6.85308911       0.03143661      -0.27910372       0.07942564
H        2.10362167       6.72534361       9.63950539      -0.07596700       0.14360512       0.20129263
H        1.66398291       5.60146707       8.43245144       0.21585394       0.16114140      -0.13003699
H       24.14743121       7.31532994       7.15017384       0.15531235      -0.05342590      -0.13599270
H       23.15394411       6.44325609       8.27291450      -0.00935350      -0.04481432       0.03211681
H       24.36024615       5.61169766       7.44124019       0.21057306      -0.04613816      -0.14427126
H       24.70507136       4.59343956      12.55249720       0.19942397      -0.07931445      -0.09213085
H        0.34742635       3.44223131      11.31378960       0.26114028      -0.11241509       0.20130530
H        1.30056631       4.44210346      12.56614468      -0.30434514      -0.09176929      -0.26624402
H        0.49780399       8.38521691      10.44180666       0.17723937       0.08832315      -0.20440151
H       22.50325038       8.98681504       8.81440068      -0.09587859       0.11314405       0.02425094
H       21.38322854       8.57625312      10.11181540       0.02301028      -0.02736049       0.01895830
H       21.96565472       7.30726633       9.17540978       0.08965527      -0.02391582       0.04832056
H       23.94783843      10.50048701      13.99148691       0.24602482       0.16609421      -0.09718706
H       22.75820444       6.17179692      11.25422940      -0.07758904       0.08004802      -0.30501572
H       22.10295503       7.54520472      12.09532863      -0.09401194       0.24322074      -0.00698170
H       23.74787757       7.17402416      12.50326790       0.16291722       0.16602026      -0.05166724
C       13.53969653      23.32548074      59.39865199      -0.23213139      -0.11122567       0.38138412
C       13.11564523      24.65018902      59.94573963       0.00923168      -0.63443829       0.73062391
C       12.21769859       0.04736099      58.88998331      -0.83991895       1.22718239      -0.32296532
C       11.07477194      24.13177512      58.53603935      -0.14744896       0.80407367       0.11983928
C       11.43096111       1.36610614      59.22925603       0.61990654      -0.18959670      -0.26572798
O       11.74458226       2.03644683      60.20399761      -0.22483667      -0.19965753      -0.87496775
O       10.46557958       1.69586244      58.34063130       0.30963060      -0.36811259      -0.44194981
C        9.91635051       2.97448846      58.71710600      -0.01986539       0.61132439      -0.67123688
C       12.93326679       0.31603238      57.54649601      -0.96738395       0.66708596      -0.09074524
C       14.15275199       1.25574289      57.39179600      -0.08122479       0.10988599       0.79323639
C       15.34115694       0.49984905      57.99371138       0.03195856       0.27259049       1.25873765
C       13.85402543       2.59769916      57.94076221       0.34182822      -0.12707036      -0.87660603
O       12.88343807       3.20763657      57.49388900       0.35550247       0.51541207       0.81304124
O       14.63003596       3.07827722      58.85728152      -0.33057314       0.07797207       0.26927602
C       14.34258936       4.32372463      59.44107595      -0.65474899      -0.22599671      -0.62375413
C       14.14366389       1.38429739      55.86795561       0.88736300       0.54542691       0.06546875
C       15.33582247       1.89757857      55.01460515      -0.69487972       0.19405751       0.15843497
C       15.79151382       3.38662693      55.24784528      -0.66600757      -1.02191546      -0.62252282
C       14.67783801       1.89846116      53.65150797       0.21569021      -0.58638050      -0.99515978
O       13.76204291       1.26474962      53.20642865       1.42436280      -1.08657353      -0.52707925
O       15.25725954       2.89421652      52.87947657      -1.00620606       1.06886531       0.13703784
C       14.56435792       3.39695321      51.90831515       0.14334514      -0.28807590       0.22074076
C       16.63480670       1.09941803      55.13626690       0.22614241      -1.50887457       0.97828898
C       16.80301983      24.69957090      54.88169612      -0.35924300       0.16286774      -0.25310408
C       15.63930696      23.97296320      54.19884157       0.82306785       0.41704654       0.21755328
C       17.58790672      23.93869254      55.93803037      -0.11167487       0.07521745      -1.23791931
O       18.38097196      24.43877960      56.71413413       0.01630471      -0.27732727      -0.23191655
O       17.24665113      22.67640469      55.99328295      -0.98767395       0.81775102      -0.49864725
C       17.92700673      21.80988945      56.93983607       0.08869897      -1.16468042       0.10809424
C       17.45373055       0.76304370      54.01141788      -0.53876097      -0.25312610      -0.62504256
C       18.92971265       0.92160982      53.72558751      -0.05420245      -0.78943296       0.23504514
C       19.67703149      24.72643091      53.53189974      -1.16203494       0.03644057      -0.26813089
C       18.94664702       1.68465930      52.40145024       0.05036059       0.94378713      -0.49053932
O       18.04256312       1.85473866      51.57270068      -0.42328139      -0.32599038      -0.69814083
O       20.10254496       2.39080930      52.21968105      -0.46238820      -0.08899534       0.03482861
C       20.32247958       2.95794987      50.98483008      -1.13911681       0.58691941      -0.43364864
C       19.58914385       1.64717918      54.86599339       0.66319188       0.35435747       0.35210874
H       13.67417823      23.33856652      58.33454656      -0.03399459       0.16205331      -0.07133539
H       12.84098389      22.48604783      59.59564938       0.00781638      -0.21616096       0.03474873
H       14.55878930      23.06653234      59.80303378       0.07341046       0.30385202       0.11730665
H       10.35965524      24.62421966      57.87495943       0.02024518      -0.09782974       0.06672163
H       11.46460062      23.21304806      58.10803089      -0.09534726       0.00571504       0.14281493
H       10.51063222      23.97384389      59.41097504       0.04935067      -0.25758540      -0.10377169
H        9.54573893       3.06704659      59.75118757      -0.23064056      -0.03569346      -0.06376645
H       10.67220177       3.72733410      58.54898714      -0.05287959      -0.10963236       0.25780382
H        9.09489417       3.13479742      58.06661758       0.22874502      -0.01056477      -0.17064838
H       12.13267430       0.58454982      56.90526059      -0.10730307      -0.09032914       0.42557584
H       13.30806725      24.52240398      57.14839207      -0.10351420       0.34569557       0.04724706
H       15.11135719       0.19585613      59.00676853       0.20660947      -0.09044320       0.12802121
H       15.45540309      24.69601048      57.43149836       0.09372368       0.09949487      -0.08854140
H       16.27049985       1.01329733      58.06002474      -0.07278789      -0.05487148       0.19301332
H       13.42754733       4.37784400      60.00057533      -0.05691452       0.06923785      -0.13676223
H       15.17846915       4.47938163      60.13501414      -0.08531770      -0.00133261      -0.09393647
H       14.34184841       5.11464205      58.67624746       0.10042736      -0.02465716      -0.16400188
H       13.81281656       0.46464476      55.43935321       0.28598433       0.11873696       0.06842299
H       13.34705111       1.99905537      55.58512263       0.10238896      -0.10742592      -0.11833839
H       16.51681819       3.67763904      54.51451923      -0.00151368       0.12470014      -0.13108784
H       16.17360189       3.62431915      56.22829115      -0.22051836      -0.17249649       0.13259345
H       14.90237576       4.10159558      55.23447339       0.07810121       0.10238263       0.03906578
H       13.47868337       3.30030305      51.89916769       0.04048706       0.00134384       0.26343111
H       15.19803482       3.92253594      51.21372686      -0.16445768      -0.06029196       0.17399399
H       17.10455844       1.48457242      56.04350198      -0.11851468      -0.15910038       0.08500490
H       16.13879413      23.15463862      53.62776645       0.11084596       0.14902804       0.12199875
H       15.01742517      23.51909683      54.93696170       0.23291854       0.30224638       0.20025531
H       15.08907566      24.59316727      53.51189015      -0.14599764       0.07307157       0.13355425
H       17.81283005      20.80932798      56.51006079       0.04179015       0.00891899       0.07662865
H       18.98294431      22.03822873      57.04594811      -0.03800857      -0.18789425      -0.08502838
H       17.45650455      21.81135051      57.92037382      -0.05921701      -0.17650607      -0.08621598
H       16.81273313       0.81094225      53.16731307       0.28347743      -0.43455122       0.13643014
H       19.78232613      24.01698612      54.33650485      -0.10087903       0.12500562       0.14610500
H       20.68999005      24.99307763      53.33818473       0.12607331      -0.05395750      -0.02327266
H       19.27019213      24.27354370      52.59222373      -0.01856405      -0.01345722      -0.03680851
H       21.35203990       3.31557488      50.87376624      -0.12283145       0.02054155       0.20781437
H       20.17788772       2.24430360      50.20571697       0.11128911       0.04058535       0.16064719
H       19.66282166       3.79979925      50.81760484       0.30525221      -0.25693808      -0.10850710
H       20.65565496       1.81974428      54.77837118       0.13116577      -0.02071783       0.17545400
H       19.49367218       1.08982585      55.78397020      -0.23001495       0.20748551       0.12352775
H       19.11067300       2.60500358      55.06097437      -0.01210600       0.03959956       0.10329953
C       24.67285041       9.84217751      50.11427372      -0.23847732      -0.33186470      -0.14551261
C       23.91914480      10.05573944      48.82064965      -0.69617420       0.05896279       0.21928696
C       22.87478690      11.16760842      49.00626324       1.17292023      -0.87736765       0.87945650
C       21.80873723      10.86530401      49.95559266       0.89867744       0.00707463      -1.17682325
C       23.47358771      12.47617773      49.34160008      -0.64468419      -1.16045451       0.20428807
O       24.48777847      12.78291458      48.72706690       0.54572162      -0.63997951      -0.21368074
O       22.83539099      13.26204182      50.22375860      -0.29282002      -0.67940563       0.91659891
C       23.41280654      14.45015509      50.54760949      -1.00698449       0.12412959      -0.33255137
C       22.18094790      11.37900674      47.45108727       0.60559909       1.07225382       0.49700487
C       21.10782602      12.51766573      47.19863376       0.08074204       0.11789177      -1.16254570
C       21.77866339      13.84916374      47.28228531       0.18865279      -0.45651307       1.20800090
C       20.02384971      12.50816493      48.22154776       0.00863378      -0.16123088      -0.81445587
O       18.94349328      12.02542324      48.14301961       0.72901009       1.75746331      -2.06794349
O       20.26593525      13.45121925      49.20288456      -0.61596189       0.98903728       1.87707941
C       19.42845892      13.42250247      50.34896414      -0.25373309       0.13264723       0.40333876
C       20.41155295      12.36061083      45.85192342      -1.07423282       0.37479287       0.11393212
C       21.30356052      12.00507250      44.54987575      -0.85674931      -0.02743783       0.11926377
C       22.49487128      13.01801558      44.23053952       0.22383560      -0.31356423       0.95786541
C       21.89269420      10.52526981      44.64187484       0.77517390      -0.18149053      -1.72544661
O       21.20867078       9.57712620      44.46858720      -0.87031028      -0.00785310      -1.26268939
O       23.17859800      10.32219848      44.93214468       0.23867310      -0.09668257      -0.90603633
C       23.44908795       8.96862764      45.03816574       0.66537368      -0.10925466       1.25321048
C       20.51889123      11.93333300      43.25238778       1.42401079      -0.20946008      -1.40722493
C       21.52744403      12.21617461      42.16861188      -0.59705897       0.87103955      -0.78858970
C       22.56641820      13.12441906      42.89604737      -0.74604286      -0.40206204       0.87752384
C       20.94609957      12.91299244      40.99265753       0.72010958       1.19034014      -0.13828387
O       21.43611092      13.70356903      40.28155516       0.49800110       0.68628099       0.00771102
O       19.73725092      12.20899473      40.60129941       1.79845319       0.20297435      -1.17712469
C       19.10299585      12.22852785      39.52711241      -0.15675309       0.37813865      -0.69995740
C       22.09595027      11.00760429      41.60529218      -0.97477846      -0.59375864      -0.86854122
C       23.28264366      10.91145365      40.62811945       0.29746458       0.81201528      -0.46955545
C       22.64056063      10.92982440      39.24845649      -0.20762375       0.38733721      -0.54877639
C       23.92398339       9.44110852      40.99032687       0.64820483      -0.33174897       0.93410866
O       23.58738575       8.30977719      40.70781503       0.87375618      -0.02045148      -1.20078904
O        0.00305881       9.72287926      41.54080593       1.19876225      -0.39295078       0.11126446
C        0.70335038       8.68243068      41.96146051       0.53863320       0.49687756      -0.01894005
C       24.25940366      12.08307477      40.74391401       0.69627100      -0.88459245      -0.22472875
H        0.40761533       9.23520401      49.92922385       0.13850321       0.16797258      -0.05762940
H       24.99890750      10.77143221      50.60589989      -0.20939731      -0.03225576      -0.16178102
H       24.06230054       9.35247362      50.90947168       0.13684667      -0.21980707       0.00945993
H       24.59128045      10.42941983      48.01749163      -0.05073472       0.10402502       0.02885933
H       23.44056732       9.12147564      48.59114048      -0.22417335      -0.04000371      -0.04475596
H       21.45402411       9.84546642      49.98570614      -0.06953694      -0.20356659      -0.11882780
H       21.21455328      11.63195468      50.39801930      -0.30054876      -0.19160219       0.08049105
H       22.47160922      14.89959149      51.00878219       0.18592138      -0.09372650      -0.00139398
H       21.74472452      10.41664344      47.20447632       0.02878124      -0.07563310       0.02329796
H       22.97115843      11.52233476      46.69482552      -0.05187290      -0.03902161       0.22708310
H       21.12621593      14.64202476      47.04723340       0.23612207       0.16212884      -0.10660462
H       22.48346406      13.79755691      46.47834357      -0.13538801      -0.05629386       0.02462795
H       22.35416030      13.98883156      48.18631245       0.13056967       0.34234409      -0.07616564
H       20.12960705      13.64673011      51.14248749       0.09756192      -0.13120449       0.06462628
H       18.65670386      14.21894656      50.20393821      -0.20742270       0.14950561      -0.16541404
H       19.78552870      11.43517865      45.87150312      -0.06911074       0.15938047      -0.36667065
H       19.75803231      13.29319180      45.76788144      -0.40112474       0.30789567      -0.05112616
H       22.82024951      13.54900473      45.03577344      -0.14392678       0.63635297       0.41810755
H       22.85070269      14.19038844      42.45247500       0.13406840      -0.00254419      -0.13192343
H       24.43593322       9.18664509      45.49721952      -0.29200794      -0.15523690      -0.04435915
H       20.14932156      10.90360601      43.10454567      -0.31625726       0.03301072      -0.04882742
H       19.77083288      12.78433533      43.23236080       0.38281086      -0.31561353      -0.39811483
H       18.02555036      12.29567682      39.65125019       0.13551311      -0.11301419       0.06823526
H       19.56900605      12.16879057      38.53165488      -0.48288348      -0.21547091      -0.39264034
H       22.28850815      10.40644233      42.50909165       0.42076873      -0.07825522      -0.12464911
H       21.37799500      10.42222164      41.01877620      -0.01080619      -0.07360856      -0.26303596
H       21.91874169      10.07829950      39.14179780      -0.23312652       0.11842242      -0.29259019
H       22.04148801      11.79886551      39.19693982       0.05893437       0.34213238      -0.33448270
H       23.35694749      10.87858316      38.41830764      -0.06871540      -0.32479463      -0.19394213
H        1.61534281       9.25359418      42.27873502       0.27605925      -0.06322206      -0.24469610
H        0.01389940       7.96900331      42.52898109       0.30837161      -0.09532465       0.09781629
H       23.80409463      13.04896044      40.57496856       0.22218128       0.08747357      -0.40729344
H       24.39508045      12.20429851      41.85970209       0.07296272      -0.15580933       0.02441468
H        0.07330915      12.01815872      40.24068584      -0.01007923      -0.06020371       0.02319624
C       16.18624480      18.09313314      45.11370454       0.48689522       0.22481778       0.37629288
C       15.08176898      18.64467146      45.90786882      -0.15754467       0.72032095       0.24055046
C       13.90825708      17.62684705      46.12314758      -0.62603878       0.20085810      -0.54459137
C       14.38463562      16.38983619      46.90859570      -0.49363865       0.14067640      -1.57515494
C       12.98454871      18.55392347      46.89765371       0.18936348       0.25910044      -0.04994921
O       12.42868549      19.49754481      46.41614707       0.04741353      -1.11581616       0.14979252
O       12.97085259      18.26936124      48.29260604       0.47486309       0.26518264       0.64669523
C       12.13675189      19.14688929      49.10403830       0.72084861       0.44714853      -0.50919429
C       13.19746084      17.40899616      44.79921737      -0.17724130      -0.25874041      -0.33286522
C       11.91508647      16.58347381      44.73525611       0.18083765       0.42757986       0.17032865
C       10.84677736      16.96121485      45.77684504      -0.18182674      -0.58303549      -0.32855996
C       12.35300704      15.12822441      45.10866797       0.36570664      -0.22229018      -0.25407590
O       12.98073088      14.33553900      44.47100265       0.17728543       0.40570978       0.59315512
O       12.11538167      14.96017298      46.41094331       0.01935608      -0.48174406       0.49785579
C       12.82156687      13.89637816      47.06058010       0.28043501       0.01573643      -0.44437256
C       11.29956728      16.59356669      43.30785067      -0.51237307      -0.66450224       0.14598119
C       11.30613207      17.90853798      42.48673356       0.14969886      -0.72757884       0.36100728
C       12.64486184      18.10075141      41.83733104       0.39152101       0.05099239      -0.52433117
C       10.82855638      19.16420273      43.31500604      -0.02584318      -0.49834308      -0.03941723
O        9.71165644      19.35111831      43.66566867      -0.27188110      -1.07507751       0.27956220
O       11.79013011      20.09550660      43.56662757      -0.69460951      -0.20899785       0.29734064
C       11.36606862      21.32206718      44.18822105      -0.45151766      -0.06876472       0.45460147
C       10.22074777      17.88004190      41.32202070       0.02792537       0.04971517       0.82028683
C       10.24991089      16.94048822      40.10155908       0.06693375       0.29137439       0.17382590
C       10.60833976      15.49924044      40.45216295       0.17680509       0.02756297      -0.58248340
C       11.26927973      17.52259909      39.06889948      -0.67973793       0.18391174       0.43741352
O       12.29959916      16.98284536      38.75001969       0.29644651       0.53600715      -0.83001910
O       10.96899434      18.74285874      38.62007127      -0.46439694      -0.23873061      -0.28141274
C       11.95532138      19.23569274      37.70023441       1.04171540       0.11112485      -0.20994554
C        8.85760044      17.01207268      39.40571870      -0.89844330       0.42414445      -0.13876363
C        7.57543062      16.65130937      40.15635015      -0.00057749      -0.00283113       0.12362167
C        7.60973262      15.39131069      40.99693177      -0.37602082      -0.29756465       0.02888524
C        6.96224881      17.75562473      41.02677961       0.39197862       0.63519695      -0.07215387
O        6.12341567      17.56410533      41.85638664      -0.17561987       0.64011482      -0.06382322
O        7.40882711      18.94540584      40.66366950       0.27637677      -0.40616096      -0.58317643
C        6.84343966      20.00808598      41.39447310       0.37530931      -0.49298500      -0.06270814
C        6.56922135      16.28252974      39.05474341       0.56171717       0.20098807       0.95207778
H       17.05966196      18.61671546      44.81403670      -0.15194395       0.05933933      -0.00378616
H       16.11617968      17.15438581      44.67456926      -0.07432841       0.21435151      -0.16791495
H       14.58798970      19.52945751      45.51047753       0.16370233      -0.01302587       0.07046473
H       15.48756414      18.90927901      46.85948835      -0.17081045       0.08409183      -0.06715377
H       15.16969382      16.10240675      46.22524153      -0.06043331      -0.20941610      -0.13276297
H       15.04090511      16.89122746      47.65099178      -0.13700033      -0.08495719       0.02041706
H       11.84658442      18.65227066      50.02086463      -0.28518220      -0.03266201      -0.14567514
H       11.23506155      19.42314544      48.55051038       0.20854376       0.17469151      -0.14993637
H       12.65917766      20.05994120      49.40254840       0.23387022       0.09158357      -0.01375765
H       13.97200225      16.90672573      44.21304308       0.13027777      -0.10803942      -0.01886027
H       12.97902093      18.35063616      44.33744918      -0.09501046      -0.17077660      -0.19353222
H       11.25822841      17.05149754      46.74780243      -0.40216661       0.04242538       0.00217485
H       10.31184005      17.88680297      45.50998974      -0.09346176      -0.11902925      -0.09500279
H       10.08963445      16.19505472      45.78399663      -0.19470700       0.07848430      -0.10077336
H       12.16058609      13.02279957      47.06900878       0.16545369      -0.03764457      -0.32391389
H       13.09155816      14.25139470      48.06598833       0.24151748      -0.05982508      -0.05344215
H       13.74793946      13.67392219      46.58045333       0.00469591      -0.03457800      -0.05749054
H       11.86391247      15.84617187      42.73744769      -0.13249631       0.01759580      -0.09932483
H       10.37590154      16.06696097      43.47039940      -0.04045771       0.12459586       0.20540831
H       13.04630525      19.05563228      41.57474264       0.19209398      -0.05365366      -0.06110457
H       13.25173800      17.20524632      41.70432415       0.15459745      -0.19359459       0.24493372
H       12.24485786      21.87235493      44.45625309      -0.21766477      -0.08101722       0.00404247
H       10.75003572      21.88193384      43.50044597      -0.02277025       0.20939135       0.29763283
H       10.80854308      21.07781806      45.11016107      -0.04380715       0.14732210       0.03407449
H        9.27519043      17.71498814      41.80230272      -0.01817849       0.10816910      -0.02030525
H       10.20189819      18.90116130      40.91533983      -0.10319952       0.13036980      -0.02589414
H       10.23165990      15.22933253      41.43109718      -0.06117157      -0.14203450      -0.07384690
H       10.17966435      14.89285530      39.64790331      -0.04124534       0.11399418      -0.24096554
H       11.66230514      15.32957115      40.40358562      -0.00944538      -0.01180168      -0.08629878
H       11.69114745      20.24430046      37.34571415       0.15555780       0.04057202       0.21167050
H       12.93248243      19.28358814      38.15038187       0.09315747      -0.00431257      -0.06430032
H       11.93209300      18.50014198      36.89233962       0.05407369      -0.04065753      -0.09070737
H        8.70651664      18.01260722      39.01128953       0.01434184      -0.00578471      -0.03333104
H        8.92531614      16.34115923      38.54332051       0.05986427       0.02023042      -0.05345087
H        6.62647847      15.22006397      41.42051289      -0.02942431      -0.01396668      -0.12108864
H        7.89454507      14.63391868      40.29396451      -0.03911007       0.01517236      -0.16404697
H        8.31776694      15.32766773      41.80917326       0.02919771      -0.23667132      -0.19202195
H        5.95724383      20.32554214      40.84864447      -0.12761299       0.07769965       0.01514116
H        7.56429587      20.78378435      41.19366434       0.06863556      -0.07077146       0.18014994
H        5.55143521      16.25139127      39.43301762       0.19220308      -0.15666245      -0.07988733
H        6.68909078      16.83785163      38.13696459       0.02208151      -0.11366725       0.03907217
H        6.77144145      15.23594332      38.78545190      -0.22404724       0.00918366      -0.24555717
C       16.29480983      18.32966773      38.59079384       0.57939164       0.03250173      -0.10093652
C       15.78625954      17.11762803      39.04931908       0.83064225       0.07704774      -0.12008537
C       16.75821467      15.92777840      39.22826296      -0.35117237       0.28754086       0.28888548
C       17.16777587      15.37862013      37.84360765      -0.27371408       0.02244171      -0.11083765
C       15.99126043      14.80482134      39.88028507      -0.09007680      -1.43746070      -0.62511240
O       16.44461822      13.64065561      39.99446801      -1.14129086       0.01694547       1.29540851
O       14.82916395      15.13924163      40.41343643      -0.25109003      -0.03215040      -0.03902158
C       14.27700005      14.21601192      41.35680396       0.37697365       1.42055599       0.15610403
C       18.10963302      16.30290474      39.94892423      -0.14061090      -0.79510536      -0.60782377
C       18.07044973      16.88167271      41.37508793       0.79007275      -0.29185788       0.02208816
C       17.27012302      16.00013902      42.34888763       0.35918359       0.44655865       0.17065344
C       17.60779041      18.29102382      41.26431100      -0.27778786       0.33123519      -0.43918539
O       18.22290229      19.14679490      40.75402463       0.31471913      -0.10776515      -0.64860418
O       16.46833674      18.50613156      41.95170404      -0.36176372      -0.68424154      -0.37554783
C       16.02995316      19.88839181      41.92800940       0.18112175       0.26099846      -0.15463610
C       19.58927040      16.90146879      41.75405134       0.08758654       0.34289696      -0.62370712
C       20.11059897      17.42189700      43.12907667      -0.66958684       0.86848332      -0.58046031
C       19.70529273      18.88307843      43.41048002       0.26308133       0.58880222      -0.71923288
C       19.78988793      16.47675616      44.26596488      -0.65047089       0.36374998       0.46092876
O       19.86524511      15.29241863      44.12468451      -0.68683337      -0.11443058       0.65352842
O       19.46520460      17.08876763      45.36364260      -0.17680981       0.27079627       0.01050167
C       18.99630067      16.32280834      46.53256160      -1.19209682       0.29314356      -0.35080592
C       21.68989894      17.35402026      42.89234021      -1.27430896       0.56390745      -0.26449640
C       22.77645298      17.95986970      43.84628717      -0.20214867      -0.99876119      -0.03346990
C       22.83484406      19.49103983      43.87111785       0.30015860      -0.41149923      -0.06027156
C       24.03048211      17.44662914      43.19705361      -1.27496902      -0.38021225       1.06591840
O       24.34384595      16.32631735      42.90739432       0.20477177       1.36121820       0.15230543
O       24.77666358      18.53110236      42.78128696      -0.60726824      -0.44804308       0.90008662
C        0.26077467      18.64174823      41.68504150       0.08332292      -0.48827006      -0.42130533
C       22.66981893      17.27255491      45.23299367       0.14975485      -0.77186496       1.09771415
C       23.80772367      17.29618094      46.26333567       0.94131563      -0.13103443      -0.23877400
C       24.93086497      18.35543851      46.10248566       0.56642406       0.00223207       0.20598538
C       23.15790810      17.28835699      47.63947131       0.44516203       0.59398111       0.92813567
O       21.96770496      17.30813437      47.97121737       1.33583321      -0.21063962       0.00821174
O       24.11242164      17.42263969      48.56814072       0.29628716       1.23446462      -0.04890111
C       23.83448040      17.59760508      49.95669466      -0.96311299      -1.02516050      -0.23333479
C       24.37647931      15.90402670      46.13079027      -1.23418796      -0.87969636       0.54122938
H       17.31983841      18.55141560      38.26288551       0.00681669       0.22860795       0.14212793
H       15.64603886      19.15939644      38.44713767       0.26598985       0.17249918      -0.14740616
H       14.98382485      16.75720277      38.38631172       0.11144110       0.05143722       0.02571763
H       15.26552819      17.26678210      39.98190543       0.03805944       0.19293832       0.00655706
H       16.47895172      14.71800543      37.31161129       0.21594403       0.06855096      -0.07796032
H       18.09396934      14.78046734      37.97913930      -0.11585957       0.22409204       0.23289133
H       17.44243831      16.22196849      37.17849833       0.09905330      -0.07983858       0.06749165
H       14.27020096      13.21795223      40.99459602      -0.06119131       0.08125152      -0.02506142
H       14.82110760      14.21710354      42.28842460       0.04664776      -0.01983248      -0.07408160
H       13.24651664      14.47193440      41.51877467      -0.02677711       0.14239281      -0.03495601
H       18.68940624      16.97206019      39.33904539       0.07408844      -0.08732487       0.05864352
H       18.68846156      15.38258229      39.97256561      -0.25514299      -0.14020277       0.09074438
H       17.54554422      16.30135360      43.34780587       0.07581798      -0.08795671       0.11319691
H       16.17299712      16.07325664      42.26481918       0.04682536       0.06901657       0.20510249
H       17.55869131      14.98232013      42.23825354      -0.00311830      -0.02451817      -0.12882652
H       15.16408501      20.00907538      42.57578041       0.01051863      -0.08688563       0.16477648
H       15.78778491      20.19831662      40.87570513       0.05155564      -0.12063888      -0.08874704
H       16.82878424      20.57170391      42.28978907      -0.16174972       0.21934382       0.04037550
H       19.91415914      15.86928468      41.62138666      -0.08732751      -0.03959173       0.10166236
H       20.10070929      17.56977101      41.04852094       0.04641528       0.11332773       0.09516246
H       20.00111166      19.27151938      44.37961898       0.13779743       0.19711064      -0.10288923
H       18.63024999      18.99397715      43.37267653      -0.02698972      -0.02435342       0.32379556
H       20.17619294      19.55249964      42.65897258      -0.02252490       0.00175066       0.26819315
H       18.07874220      16.84780673      46.80139269      -0.20563381      -0.10699984       0.07578732
H       19.69996555      16.48829620      47.33323794      -0.12627686      -0.11735973       0.10178527
H       18.68389200      15.30936344      46.29191939      -0.21195421       0.12982340      -0.20801525
H       21.80025205      17.83067863      41.93237744       0.21271182      -0.11175476      -0.13700029
H       21.94385079      16.32600706      42.70624562      -0.17348691      -0.07866898      -0.18508335
H       21.98161637      20.04931912      44.24168780      -0.00974652       0.04528123       0.14676202
H       23.02093805      19.65517632      42.82739064       0.04157874       0.09364502       0.07069523
H       23.68623118      19.87484689      44.41121611       0.09194035      -0.04245859       0.01624672
H        0.97028544      19.45807886      41.69123919      -0.18179718      -0.04776542       0.01549571
H        0.12536930      17.91883302      40.96837275       0.08566803       0.21081327       0.26318504
H       22.42132391      16.19875974      45.06635552      -0.02611825      -0.17182084      -0.08216706
H       21.80765199      17.73029545      45.71100454      -0.08207786      -0.17998064      -0.24798052
H        0.67758501      18.03502906      46.59198716      -0.26392096      -0.02151146       0.02138217
H       24.66294450      19.34037479      46.55844538      -0.17706228      -0.00282716      -0.20018663
H        0.05448770      18.51797709      45.04296629       0.15157426       0.05496249       0.14190517
H       23.56259756      16.69610617      50.47513115       0.17522383      -0.07023519       0.04777230
H       22.96544666      18.25810266      50.11053498      -0.03644108      -0.00391662      -0.05026047
H       24.74551088      18.05453682      50.37782486      -0.01746830       0.03331357       0.14374474
H       24.80821697      15.91311271      45.10904009       0.03083919      -0.02947871       0.36671855
H        0.15312957      15.99102249      46.64186994       0.04719385       0.18355634       0.14459047
C        7.19107508       0.86440263      19.55155728      -0.12025951       1.04004392       0.25365319
C        6.59263451       0.35216720      21.03150938      -0.32197233      -0.10811140       2.97740950
C        5.34242281       0.02229485      21.66178223       1.20885506      -0.59973831       0.50438006
C        6.77997636      24.71649567      22.03737227      -2.13326995      -0.16733226       1.77539367
C        4.62204275      23.83937186      21.17237276      -0.86349661       2.23085927      -0.60854637
O        5.05137307      22.91252669      20.66566539       0.12345424      -0.12562145       1.78440215
O        3.18737857      24.10134039      21.31922177      -0.54077814      -1.47386719       0.50404014
C        2.37558025      23.42490829      20.50522867       0.28228316      -0.91663727      -0.15300889
C        4.51204188       0.92477156      22.38694479       0.86288273       0.78379950      -2.24649433
C        5.01807875       2.25059230      23.25065885       0.53835014       0.76953729       0.40821318
C        5.83225041       2.03070086      24.47574063       0.21309864      -1.16104632      -0.55051416
C        5.80074970       3.11915818      22.15886947      -1.18869687       1.20057314      -0.06920180
O        5.38777240       3.49715633      21.09836223       1.83104527      -1.43320053      -0.61294548
O        7.08635653       3.49141334      22.46141124       0.92571878       0.80293461      -1.25997473
C        7.84176683       4.50707972      21.72931076       0.84113729       0.69504179       0.31731269
C        3.75001424       3.11332863      23.54310601      -0.85807968      -1.16462925       0.19884998
C        3.65525306       4.59093910      23.97172046      -0.36609044      -0.74039868      -0.72336249
C        4.93686971       5.50225188      23.81010988      -0.49328698       0.72405998       1.04855152
C        2.69510499       5.25454642      22.84716031       0.02071454       0.82569899       0.01458403
O        3.10095855       5.97412016      21.92092076       0.98910343       1.45443288      -1.87886481
O        1.44856233       5.05568443      23.21661642      -0.91128375       0.00520713      -0.14758735
C        0.46926295       5.36824700      22.13217751      -0.27795977      -0.48993653       1.33140803
C        3.24680191       4.46513242      25.37042339      -0.51830865       0.61697836      -0.77712994
C        2.44370571       3.48957514      26.21704027       0.61433881      -1.47278035      -0.03547968
C        2.73939138       2.11574655      26.15508341       0.26305474       0.95092241      -0.62795580
C        2.70689111       4.22948728      27.58493690       0.59101526      -0.41939970      -0.48697581
O        1.93815192       4.97403073      28.06613432       0.59127670      -0.59737545      -0.58453002
O        3.86707303       3.76923961      28.10465958      -0.74023193       1.60898791      -0.81455050
C        4.16083766       3.93712939      29.47707764      -0.95209524       1.01959566       0.19131561
C        0.86269468       3.88570565      25.94036577       0.13340744      -0.19864734      -2.12687530
C       24.89963764       2.98740347      25.07951055       0.00170845      -1.66434800       0.43136966
C       23.94064353       3.56495416      24.24556581      -0.36812289      -0.05020634      -0.60421123
C        0.47806556       1.79122539      24.33264228      -0.72785279       1.26803880       1.49373865
O        0.98226769       1.88663313      23.28558731      -1.66947400      -0.92688684       1.96923787
O        0.38875974       0.54542153      25.02527861       1.04420277       1.21245234      -0.32730323
C        1.05766216      24.60665580      24.28572975       0.37732704       0.98606988      -0.07993596
C       25.00666133       3.15692297      26.57857509       0.43396882      -1.33735996       0.15066359
H        7.53571246      24.98168816      19.29483330      -0.23552122      -0.03360116      -0.36157421
H        8.09154633       1.30287380      19.92821132       0.22619757      -0.22490423      -0.31810849
H        6.70365296       1.47877873      18.75854817      -0.41723734      -0.35174703      -0.23663549
H        7.60065287      24.39124571      22.63417754       0.23297363      -0.15484003       0.74342224
H        1.33618032      23.64721501      20.76325370      -0.19843961      -0.07684077       0.12682668
H        2.79274934      22.98238551      19.61438101      -0.13091813      -0.03108473       0.00278997
H        3.73846345       1.35101866      21.72459643      -0.39884113      -0.20776056      -0.16151233
H        3.99857729       0.23733151      23.06805009       0.13273795      -0.26029530      -0.01835586
H        6.70273800       2.62283428      24.76520231       0.07342113      -0.10260984       0.46676320
H        5.74731943       1.04258360      24.85758062      -0.13130889      -0.00786213       0.02007675
H        8.71908913       4.70736009      22.26013078       0.11630100       0.11729556       0.02899804
H        8.04927789       4.21970289      20.67801703       0.22182856       0.14014604       0.01101966
H        7.27500530       5.44979450      21.67833434       0.25211007       0.07747431       0.20801668
H        2.98678313       2.56864185      24.05618184      -0.16435939       0.06020008      -0.14740935
H        3.35623378       3.05660366      22.53134371      -0.14495369       0.20084807      -0.05147730
H        4.99953690       5.74850369      22.77970540       0.03912569       0.10527664       0.06846279
H        5.93644261       5.08171158      24.10602894       0.10759755      -0.15268563      -0.38312602
H        4.79779542       6.45846813      24.40161501      -0.01142686       0.10914815      -0.08579147
H       24.91781766       5.98731364      22.68947849       0.04116095      -0.04380535      -0.16259586
H        0.08630798       4.35476074      22.07721521      -0.04394865       0.41834679       0.03594250
H        3.62457217       5.27820704      25.95337189      -0.10066333      -0.00921343      -0.24075086
H        2.23272672       1.52940725      26.91889900       0.00542430       0.07979217       0.02297324
H        3.85231835       1.95985106      26.22426224      -0.13111754      -0.15753140      -0.54132761
H        5.24189861       4.11428579      29.45495668      -0.11372438      -0.01153682      -0.24821592
H        3.70090669       4.80008088      29.96100646      -0.14519562      -0.01017379       0.20500295
H        3.96127594       2.96710984      29.87122401       0.04523762       0.10095585      -0.09665252
H        0.52650976       4.93713049      25.84339355      -0.26007543      -0.30486580      -0.14062379
H       23.98290972       3.73273378      23.12639635       0.20113320      -0.54763474      -0.26044340
H       23.42390789       4.22124882      24.94259284      -0.54759777       0.01820763      -0.47567032
H        1.13522907      23.75267762      24.93852569      -0.22648021      -0.00461017       0.19558422
H        2.00632233      24.88089672      23.85326034      -0.02812981      -0.00697765      -0.21472646
H        0.41339103      24.30307689      23.44962393       0.04896128      -0.43973115       0.06133268
H       24.23461114       3.80791421      27.06358698       0.11214659       0.10097041       0.41118729
H       25.13704274       2.14211290      26.88334717      -0.16826762       0.25238805       0.49385405
C       22.57720447      22.35160295      53.41506408      -0.51973109      -0.86823213      -0.44347250
C       23.87774530      22.24597175      52.73683758       0.27282013       0.05532622       0.00750361
C       24.32041465      20.84529749      52.09831339      -0.66205466      -0.07104366      -0.17891125
C        0.59079709      21.05630908      51.61135490       0.56062583      -0.06861685       0.16065044
C       23.38986820      20.69482479      50.90391836      -0.23451741       0.25114745      -0.70454861
O       23.68884449      21.02400178      49.78373210      -0.11525843       0.21460077       0.21225461
O       22.16830101      20.10227599      51.21812912      -0.21649305       0.55833235      -0.46192677
C       21.11051959      20.39708099      50.21726659      -0.14266122       0.73517248       0.34591162
C       24.14774579      19.58480125      52.96154305      -1.04389382      -0.43177775       0.02437449
C       24.84753962      19.54180242      54.30912500       0.50761383       0.26633225      -0.39229051
C       24.78584841      20.88743814      55.09525748      -0.01660203      -1.28243807       0.93873774
C        1.18857363      19.24548611      54.08605385      -0.05604316       0.70286003      -0.47171798
O        1.57109666      18.47898237      53.26394985      -0.41123936      -0.01233785      -0.30653260
O        2.02383800      19.82698190      54.95909915       1.06984217      -0.35996614      -0.41635570
C        3.40066801      19.52613324      54.97146125       0.07006755      -0.03599686      -0.71894562
C       24.37398141      18.23004312      55.10307344      -0.32652647      -0.40642342      -0.07048666
C       22.89579311      17.84131596      55.12584601       0.25282368      -0.46915659       0.04410635
C       21.88826682      19.08935635      55.29033360       0.05490140      -0.54589830       0.42772641
C       22.61591331      17.10904199      53.78756218       0.13176260      -0.59624291      -0.67189954
O       23.38134666      16.37218917      53.20512935      -0.24045588       0.36636515      -0.17881047
O       21.40625196      17.33316137      53.32102354       0.92734473       0.16855545       0.64248411
C       21.06173792      16.58980453      52.07381608      -1.13323238      -1.19380843       0.90242815
C       22.65363201      16.93974175      56.32007915       0.71949808      -0.50657909       0.00887154
C       22.39957221      16.83454054      57.79919235       0.15927555       0.10737294       0.29661475
C       23.74831281      17.10647861      58.54521873      -0.06532856      -0.00981469      -0.44755907
C       21.84273777      15.46320261      58.27667726      -0.78287756       0.28974692       0.72505534
O       21.92367166      15.07523981      59.46986314      -0.39752386       0.15377380      -0.11500795
O       21.35992486      14.67119754      57.29847815       0.25343878      -0.46709708      -0.16927923
C       20.80205610      13.50544843      57.85205297       0.11216120       0.64568026       0.27015224
C       21.28605836      17.96176781      58.09578938       0.39931488      -0.45730539      -0.19859256
C       20.67722935      18.11407305      59.51255271       0.36195315      -0.08339673      -0.16715631
C       21.75664486      18.24227407      60.60771525       0.13645474      -1.01156032      -0.51105101
C       19.57181518      17.07869860      59.75856135      -0.05592681      -0.03885393       0.38090402
O       18.96235846      16.44658552      58.96783041       0.86970621      -0.26001120      -0.13578139
O       19.25314231      16.95863575      61.04687777      -0.78348811       1.06552684       0.02911742
C       18.06692217      16.17734130      61.22620326      -0.50715806       0.79669415       0.31331061
C       20.08310647      19.52822977      59.43970750       0.33322297       0.15188400      -0.59166754
H       21.97209569      23.23485755      53.16053266       0.15580461       0.21270762       0.08206851
H       22.15464416      21.61758453      54.04199601      -0.11204375      -0.06288632      -0.18451255
H       24.78358394      22.46008772      53.32071427       0.07285773      -0.09692044       0.18678364
H       23.99009408      22.93858179      51.90969942      -0.01332285       0.11267846      -0.03493891
H        1.01139665      20.27383319      51.00948818      -0.03567707      -0.00890537       0.04995687
H        1.25546520      21.21647395      52.50801810      -0.16393873      -0.04343831      -0.06005267
H        0.64676034      21.99893768      51.11085222      -0.07089326      -0.02450031      -0.25041990
H       21.54617825      20.21811717      49.22171760       0.01810987      -0.17603645       0.07064793
H       20.29405693      19.69467716      50.42037800       0.14717705      -0.15267556      -0.21304603
H       20.75940626      21.41086519      50.44479446      -0.15660919       0.07950628      -0.19587899
H       24.41461128      18.74439025      52.34120318       0.03357435       0.12107128       0.02191513
H       23.10968020      19.41946172      53.08460475      -0.07513887       0.11479262       0.14527991
H        0.37285730      21.59899596      54.64455445       0.21510674       0.04785009      -0.14122007
H       23.83090436      21.43301345      55.24960416       0.10578090      -0.16217878       0.01322807
H        0.08924684      20.79159643      56.10494714      -0.11224043      -0.07000736      -0.27516200
H        3.55506246      19.94806187      55.98398655      -0.56410738      -0.18611362       0.08051399
H       24.74451082      18.29485767      56.08125477       0.20605984       0.29288967       0.15182881
H       24.99567193      17.42449682      54.66704883      -0.18010645       0.11589466      -0.18545055
H       21.82807458      19.68277174      54.36703255      -0.28533328      -0.21339221      -0.00334243
H       22.41467976      19.70618345      56.01133113       0.11140199       0.00040056       0.18991616
H       20.85751764      18.84684778      55.61854008       0.04363277       0.09526830       0.01092467
H       20.05549105      16.89703532      51.95971672      -0.05601324       0.14444564      -0.31584543
H       21.64354492      17.13046666      51.29234671       0.23775703       0.08974927       0.01677709
H       23.71149007      16.98621732      59.61826757       0.19114873       0.07484791      -0.11377664
H       24.48200014      16.40215453      58.08149544       0.03315759       0.18542557      -0.11212244
H       24.03467875      18.13043370      58.37892071       0.06553049       0.20070219       0.18432109
H       21.45308288      13.12891013      58.62361210      -0.00182193       0.25288719       0.20941752
H       19.87980487      13.85816287      58.30888973      -0.16398171       0.09126556       0.11408954
H       20.67627860      12.78255385      57.08455721       0.19969283      -0.09370235       0.14187180
H       21.85822959      18.89341667      57.92995984       0.05191540      -0.10245028      -0.20724330
H       20.47638989      17.85044590      57.36108503      -0.08864195      -0.01582622       0.02072718
H       22.48900685      18.94338354      60.24539582      -0.19016325      -0.18687937       0.02837128
H       21.43527565      18.61835491      61.56003364       0.09584967       0.02272948      -0.06626538
H       22.22953782      17.29386928      60.76549001      -0.13491623      -0.00829652      -0.02591010
H       18.15302203      15.20908970      60.72607895      -0.05551473       0.17403063      -0.25118014
H       17.74238095      16.17277301      62.26669915      -0.09983121      -0.09965615       0.07182039
H       17.28460491      16.62879607      60.63587115       0.00959922      -0.10498531       0.00786061
H       20.92666084      20.17087645      59.40146711      -0.04152499       0.02271777      -0.21946935
H       19.54637399      19.78225290      60.33329535       0.09362841       0.10151303       0.08406047
H       19.42363103      19.61134887      58.55833286      -0.14294492       0.11008525       0.08377479
C       12.78536317      14.11604749      16.40636008      -0.19806261       0.36544986       0.00013477
C       11.97973115      15.17117878      15.67837993      -0.15214092      -0.31158579       0.20872324
C       12.86138609      16.40586860      15.45975660      -0.54237400      -0.11788592       0.64187397
C       14.13081507      16.04458158      14.77431457       0.13726139      -0.12677547       0.46254508
C       13.25429057      16.89882344      16.89145478       0.04228737       0.60394248      -0.22269521
O       12.53350845      16.70450725      17.85380751      -0.15488554       0.22623338      -0.44970949
O       14.44444236      17.53357828      16.90663539      -0.88192880       0.15573689      -0.97046559
C       14.90184018      18.05530626      18.14159417      -0.26029376       0.15654577      -0.15327710
C       12.18007214      17.62825547      14.81011929       0.13624041      -0.14386664       0.16547773
C       11.53176570      17.52675640      13.41410794      -0.02917763       0.38113474       0.29032522
C       12.32009253      16.88576470      12.35389191       0.22562230      -0.67301733       0.88345922
C       10.07139894      17.04874434      13.42078045       0.24977501       0.22505964       0.23290760
O        9.51814507      16.54338782      14.34383792       0.11366901       0.16604000      -0.77843412
O        9.47266654      17.17308199      12.20487702       0.85226295      -0.56122191      -0.01836347
C        8.21293096      16.52545860      12.03778244      -0.04020907      -0.67420590       0.28384456
C       11.42023378      19.04618881      12.88938846       0.20901582       0.43450189      -0.15486071
C       10.71394517      20.16527831      13.69434622       0.43468164      -0.06284131      -0.11427020
C        9.25926378      19.90952834      13.88081595      -0.63154054       0.76513023       0.81456747
C       11.44450634      20.41705625      15.00274622       1.04870195       0.69778033       0.25434885
O       10.95711100      20.30298613      16.08957341      -0.84597377       0.49494219      -0.24089009
O       12.79148313      20.66963934      14.81260070      -0.37624876      -0.45651409      -0.69724947
C       13.48847385      21.19126525      15.90211144       0.09708684       0.76075961       0.09403698
C       10.96091081      21.44315791      12.78047108      -0.31462686       0.11238871      -0.61531182
C       10.72332067      22.94816247      13.24137347      -0.09956506       0.11789975      -0.27426234
C       11.75391247      23.28838814      14.22078258      -0.04338289      -0.26816988       0.47363587
C        9.28163393      23.10604133      13.62127973      -0.26946458       0.52267105       0.07715721
O        8.35526281      22.77885444      12.89298854       1.10937748       0.38794539      -0.54976377
O        9.04316105      23.55563880      14.86870414      -0.39730275       0.53512375       0.47648449
C        7.66757359      23.79876353      15.19969725      -0.00442406      -0.07259896      -0.77452554
C       11.02263426      23.73554239      11.92015114       0.02233424      -0.01943868       0.35570245
C       10.51153060       0.11667856      11.83205352       1.10399358       0.18939330      -0.17104713
C        9.06733983       0.19158967      11.33651702       0.05024469       0.16849528      -0.77718785
C       11.49695940       0.82424553      10.88580537       0.74091781       0.00432700      -0.31819874
O       12.55980942       0.34115274      10.53108454       0.46955719       0.65197561      -0.21397940
O       11.13068468       2.06429290      10.57072083      -1.15869949       0.17008584       0.81776041
C       12.09979345       2.72262796       9.73247411       0.48599653      -0.24973685       0.61251235
C       10.59812612       0.93145855      13.11061347      -0.56090271       0.07572408      -0.05386070
H       13.47929214      13.61025739      15.76496469       0.03451570       0.20445524      -0.12262148
H       13.38078037      14.44470099      17.26407153      -0.01467396      -0.11404235      -0.11436629
H       12.11746129      13.34860333      16.78191832      -0.00778413      -0.07321358       0.04169144
H       11.71563434      14.75311082      14.69149686       0.00656543       0.12781503      -0.08977133
H       11.07303718      15.44050552      16.20567824      -0.13460684      -0.07439424      -0.08871743
H       14.55664046      16.93169045      14.31127566       0.04059211       0.16073888      -0.25036890
H       13.82322842      15.45537667      13.89638358      -0.00701533       0.01537666       0.18024377
H       15.60154216      18.83831538      17.87138525      -0.00752192      -0.18448606      -0.14908966
H       14.07623167      18.44077962      18.73297240      -0.10544184      -0.20548794      -0.11013652
H       15.42310047      17.26132001      18.64879178      -0.07382249       0.12816615       0.05090463
H       12.99033489      18.38270347      14.64841058       0.10321985      -0.09233263       0.18843207
H       11.41974863      18.03304776      15.46626083       0.21426078      -0.01805397       0.05350419
H       12.25010694      15.80927705      12.28203359       0.10473679       0.09927933       0.12882289
H       11.98244233      17.26799766      11.41512994       0.14618768       0.12268495      -0.04879864
H        7.83227054      16.30531783      13.01400363       0.19622182       0.14893352       0.14602109
H        7.57763371      17.18551838      11.46989104      -0.05555746      -0.04096311       0.09504957
H        8.28142015      15.60400481      11.48802602       0.20378356       0.07602894      -0.11167928
H       12.39903537      19.43709650      12.68333008      -0.09393487      -0.01092878       0.07648710
H       10.90943410      19.08923798      11.89626094      -0.02125465       0.12357779       0.08589116
H        8.78405282      20.75602743      14.36255447      -0.06526391       0.00457650      -0.08949805
H        8.74485154      19.86115209      12.92645118      -0.00909411      -0.18502996      -0.00063009
H        9.07523365      19.05524072      14.55215341      -0.08471329       0.06793270       0.16766531
H       14.52801360      21.24192731      15.61927651       0.06890819      -0.00506894      -0.06376935
H       13.09925612      22.21721690      16.20962894      -0.20776595       0.13104111      -0.05759203
H       13.43081477      20.53814037      16.76063729       0.00297416       0.06322875       0.07371062
H       10.38526095      21.36807728      11.83386571      -0.16837592       0.06513919       0.03318561
H       12.02768463      21.35374681      12.56265369      -0.12093975       0.13628187      -0.02496021
H       12.77852329      23.08995825      13.86962501       0.03028124       0.09309533      -0.13247481
H       11.55300412      23.65851553      15.17208601       0.03961011      -0.06191799       0.07188168
H        7.43646919      24.82963525      14.96413113      -0.02488848      -0.00255300      -0.10291596
H        7.58222788      23.69006996      16.27635497      -0.02353990       0.18996868      -0.03600656
H        6.97551969      23.12119188      14.78653257       0.09330346      -0.08897818      -0.14164093
H       12.10895156      23.80474122      11.80805530      -0.16176675       0.23964824      -0.05033224
H       10.69431661      23.20202618      11.06615448      -0.24951837       0.07148215      -0.11302875
H        8.44671436      24.93938051      12.03923028      -0.26901572      -0.01562656       0.02613405
H        8.80788874       1.21524211      11.20259657      -0.12308122      -0.04504156       0.09636925
H        8.90250833      24.82683372      10.41502969       0.03303414       0.08750428       0.23047784
H       12.66898546       3.38903790      10.38872703       0.26759973      -0.16490472      -0.22450856
H       11.40881625       3.43194361       9.29387677      -0.09066740      -0.12038715       0.40628637
H       10.17943382       1.91857309      12.91987110      -0.03484187      -0.00036899       0.04561719
H       11.61652971       0.93302200      13.55083871       0.18057256       0.01535623       0.06921255
H        9.89862815       0.38524076      13.79994394      -0.03020450       0.20409345      -0.03959284
C        4.60147363       2.00556918      58.97908111       0.84923266       0.46621844      -0.89670925
C        4.16368370       0.91475283      58.01540255      -0.58269295      -0.25716862       0.87228795
C        3.33103335       1.26541910      56.81692119      -0.27702865       0.12044692      -0.01038413
C        4.05026730       1.88640061      55.56869696      -0.28979633      -0.84920457      -0.59285700
C        2.78398379      25.03096227      56.48048122      -0.31964729       0.87637330      -0.27544842
O        2.14102005      24.34270922      57.24647970      -0.41458991       0.00246810       0.06561636
O        3.11113093      24.64588706      55.27561640       0.08580896      -0.19760811       0.31275437
C        2.46525576      23.49226403      54.74928662       0.21012288      -0.30484246       0.08874717
C        2.11263952       2.19952186      57.19609606      -0.13034831      -0.05260313       0.70525653
C        0.86669890       2.33768264      56.34139449       0.61598677       0.37255201      -0.38262607
C        1.17274854       2.47886718      54.82729069       0.32994805       0.10400456      -0.49409838
C        0.34630397       3.70432277      56.82502995      -0.40981968      -0.41249297       0.38312492
O        0.71677166       4.26744739      57.81302965       0.19922651       0.67659120       0.93453598
O       24.68821848       4.26231511      55.88579136       0.05625353       1.46255756       0.20741382
C       24.47510274       5.61453253      56.00410275      -0.38922012      -0.53238425       0.57924299
C       25.08763235       1.20090246      56.70491109      -0.18169386       0.36097672       0.87588443
C       23.81777237       0.58684545      56.28150677       0.07068712       0.95252900       0.20177821
C       24.12958509      24.20647697      55.97061048      -0.59123309       0.33365752       1.45350472
C       23.46609846       1.19563309      54.95246326       0.07362211       0.60838638      -0.17679804
O       22.88836407       2.25376150      54.82766904       0.74876619      -0.55208841      -0.05354089
O       24.01453366       0.55733114      53.89284114       0.19645909      -0.13355956      -0.02023266
C       23.90288297       1.07123869      52.59616462       0.07719878       0.36609001       1.19104817
C       22.59193382       0.93363093      57.29829746      -0.17077637      -0.10785749      -0.06943127
C       22.66276051       0.66518787      58.73451543      -1.67976046      -1.19729032      -1.06537095
C       21.23857225       1.03911036      59.31614873      -0.61051000      -0.38307461       0.82119302
C       23.57259350       1.70353247      59.44706877      -0.51429272       0.21736281      -1.22465678
O       23.91767573       2.71741890      58.92571797       0.85456345      -0.56135097       0.24605345
O       23.58126350       1.46416935      60.74788016       0.99343838      -0.22081874       0.33019313
C       24.28983691       2.38757611      61.59369188       0.03361188      -0.14034566       0.18127889
C       22.79165691      24.31750867      59.15911734       0.81321077      -0.59693826       1.62659209
C       24.06904013      23.40715236      59.69266489      -1.41296893      -0.42484732       0.21478528
C        0.14428163      24.15119112      59.98865017      -0.15288037      -0.54673455      -0.94091468
C       24.09386572      22.02614824      59.26704842       0.75437860       0.60391701      -0.99933532
O       23.16575294      21.53594525      58.66522267      -0.62928608      -1.53963796      -1.53210351
O        0.11017973      21.39631137      59.52008715      -0.03707036       1.47298558       1.07431354
C        0.42240139      20.23008961      58.80387750       0.13045645      -0.38410694       0.38998687
C       22.80739872      23.74599735      60.38974812       0.50401072      -0.28258604      -0.93834367
H        3.79554168       2.66598316      59.31386646      -0.08259205      -0.07017298       0.05763192
H        5.00339244       1.50436003      59.88837092       0.15242850       0.10027555       0.04250517
H        5.40201017       2.62678340      58.60368854      -0.04471806       0.14802876      -0.19647289
H        3.54285326       0.29442733      58.57879244      -0.09515906      -0.05137942      -0.11743877
H        5.08121302       0.39637535      57.70690957       0.01761453      -0.02432417       0.11175819
H        4.35078605       2.74918529      56.22361693       0.17718366      -0.11971246      -0.15117093
H        1.46566264      23.65096133      54.45475612      -0.14583760      -0.25675258      -0.00135931
H        2.42384001      22.72733294      55.49460450      -0.27104963      -0.11813613      -0.13570156
H        3.12170764      23.24565814      53.84843930       0.15647884       0.24871207      -0.10624507
H        1.86242251       1.93747928      58.22770323       0.15581586       0.12597532      -0.00366665
H        2.61717660       3.14303683      57.33022924       0.18886376      -0.05470222       0.01052944
H        1.81389378       1.71034488      54.42168692      -0.05022240      -0.09001097       0.02408689
H        1.78475559       3.33729052      54.89818132       0.05362367      -0.25853675       0.06180863
H        0.31443983       2.67501309      54.26215839      -0.08295805       0.18829462      -0.03421007
H        0.31011150       6.16110429      56.08231968      -0.25271345       0.09781563      -0.02792274
H       23.83747114       6.00210637      55.20802196      -0.23949831      -0.23244846       0.28269360
H        0.25882533       0.78145996      57.67654245      -0.04070169       0.01032572       0.13488455
H       24.43886729      23.86983340      56.91141597      -0.18914057      -0.08210845      -0.34484232
H       23.20663099      23.74577715      55.70577924      -0.14221680       0.14548758      -0.43549219
H       23.88436904       2.15791933      52.54022169       0.12401289       0.16237308       0.32116124
H       24.75896616       0.73221126      52.02166764      -0.10049855       0.07743091      -0.00959049
H       22.98707233       0.68588241      52.12692344      -0.00190503      -0.10558901      -0.08207666
H       21.78242745       0.40932906      56.83880829      -0.08731141       0.28398498      -0.04133208
H       22.45661378       1.98253184      57.12362535       0.33538578       0.03904605      -0.14690800
H       21.06200503       0.65018456      60.31759006      -0.13887693       0.10091625       0.19959092
H       21.25345449       2.11729336      59.34498387       0.11973249       0.06654187      -0.10112184
H       20.43643926       0.68183363      58.66188337       0.19519281       0.00722037      -0.37739075
H       23.59453688       2.79170096      62.36155449      -0.32797519      -0.02053441      -0.00121336
H        0.01802390       1.87434211      62.01011225      -0.35089620      -0.13958870       0.10325592
H       24.68790751       3.14818724      60.91398940       0.03356721       0.00933725      -0.23350185
H       22.19219525      23.78507245      58.33145492       0.21705866       0.04863811       0.16731495
H        0.76935756      24.22036659      59.13257072      -0.45860700       0.11316390       0.05104766
H        0.00608068       0.03805035      60.23267816       0.49749376      -0.17557660       0.41248279
H        0.57962361      23.76863897      60.90771528      -0.22815267      -0.12827007       0.12322056
H        0.52103431      19.43854146      59.50187982       0.11484213       0.10366961       0.29443440
H        1.31934216      20.39571728      58.20724447      -0.11815987       0.05253536      -0.12558221
H       24.75279226      19.93791584      58.12623675       0.05837532       0.30002787      -0.08407035
H       22.41028466      23.82253861      61.34827950      -0.03538026       0.28155192      -0.23956535
C       23.39045145       0.46465376      36.77016670       0.53579350       0.31295551      -0.75220248
C       24.98014087       0.50501049      36.93245336      -0.82007912      -0.35195420      -0.10116376
C        0.32698131       1.95312696      36.96870544      -0.28293027       0.33460279      -0.39258594
C       25.01459713       2.82881331      36.12675501       0.92113616      -0.49547320       0.28190873
C        0.42602374      24.89063660      35.76478957      -0.47941323       0.15197074       0.34313266
O       25.04441626      24.14115780      35.01748146      -1.34956940      -0.66820464      -0.25943052
O        1.73286341       0.17786991      35.72193700       0.81942692       0.13594034      -1.17774376
C        2.46547735      24.50909287      34.83261014       0.09069900      -0.38444903       0.31463175
C        1.51005869       2.08288378      37.92458310      -0.12368579      -0.07380671      -0.09420451
C        1.27960987       2.24868205      39.49149870      -0.00981473      -0.40567715      -0.54341315
C       25.07857313       1.64411617      39.99254652       0.65468780       0.48978155      -0.72414854
C        1.13705243       3.77741922      39.84290427       0.86285037       1.07907761      -0.45977267
O        1.47327420       4.22882170      40.89815353       1.21106956      -0.20658731       0.07103277
O        0.53372930       4.55288200      38.93870143      -0.11876325      -0.32292843      -0.43545544
C        0.78394379       5.93242496      39.22397111       0.38212206       0.42154812       0.65836908
C        2.43403806       1.70368550      40.27883599       0.51140898       0.97485368      -0.93091652
C        3.92538982       2.09641597      40.05717088       1.44813475      -0.43846121       0.23087099
C        4.19174388       3.50938929      39.64543838       0.43517821      -0.88296505       0.15241171
C        4.37631708       1.12126222      39.04994448       0.09596885      -0.37551203      -0.06022597
O        4.24574824      25.05658207      39.11548530       0.17965516       1.69232425       0.13395863
O        4.92160056       1.76386515      37.91770313      -1.50551192      -1.59062283       0.51716409
C        5.32307588       1.01207669      36.90638556       0.86354023      -0.35980658      -0.51395157
C        4.57513800       1.74154977      41.39811236       0.69223444       0.00803763      -0.87857568
C        6.12251989       1.66776760      41.59408454       0.13172798       0.17415505       0.82105103
C        7.01078181       2.21443550      40.40869246      -0.26900698      -0.29923987      -0.13172784
C        6.39466626       0.16680545      41.80636713      -0.31338234      -0.35443054       0.05470723
O        6.26828529      24.67690072      42.85332182       0.16594574       0.96222413       0.20886430
O        6.73818090      24.77193114      40.66360093      -0.02656907      -0.37979669      -0.68224502
C        7.02478214      23.34924410      40.56660962       0.62456469       0.55106753       0.45307198
C        6.34483596       2.34178996      42.92215887      -0.14491171       1.15160279      -0.67353674
C        7.71588932       2.41615711      43.73947997      -0.07241663       0.20705113      -0.64278772
C        8.60568998       1.13651693      43.55548734       0.40135476      -0.06229093       0.68135880
C        8.61907682       3.57053878      43.16588214      -0.40719565       0.74497718       0.08559777
O        8.35386240       4.25295771      42.17319539       0.22259263      -1.08966167      -0.37651919
O        9.76159949       3.70284598      43.87614396       0.11545566      -0.15515681       1.46967085
C       10.50749673       4.95020774      43.71680725       0.51102292      -0.52807474       0.41801037
C        7.38929893       2.70281422      45.17359994       0.22832447       0.08759356      -0.34007880
H       23.10829443       1.13179952      37.54698677       0.04331687       0.15242551       0.30077774
H       22.99760561      24.57865880      36.76550259      -0.22300152       0.08128700       0.12426286
H       23.17493086       0.82191453      35.80373856      -0.00043045       0.04006511      -0.09373366
H        0.02708959       0.00484638      37.90313368       0.28209027      -0.01704865       0.00066521
H        0.22811926       3.83253341      36.26822045      -0.06586733       0.45856295       0.38549060
H       24.32485098       2.46659209      35.38266280       0.06930056      -0.02940076       0.04293710
H        3.50059519      24.66225343      35.09147200      -0.18685031       0.17985900      -0.10288438
H        1.90830471      24.53265707      33.86607109       0.11171087       0.15371067      -0.20149125
H        1.99088008       3.04172177      37.62859904       0.16306704      -0.20787900      -0.08578672
H        2.15977762       1.27072475      37.71245470       0.08308081      -0.18933662      -0.13308584
H       24.22405201       1.95938707      39.37915456      -0.01882923      -0.24237265      -0.39329024
H       24.97065584       1.99179053      40.97271496       0.07548410      -0.10665619      -0.17579255
H       25.07408108       0.54568899      40.05757048       0.20034559      -0.33568421       0.04698140
H        1.77723081       6.15734480      39.45622230       0.06793117       0.14079891      -0.02876857
H        0.51086389       6.35369018      38.25943579      -0.30498045      -0.07589326       0.02464586
H        0.12986375       6.22824233      40.04347960      -0.07546933       0.12951127       0.01951328
H        2.39256291       0.63848706      40.09366816      -0.20120196       0.12012408      -0.00092263
H        2.08581366       1.84059658      41.29806167      -0.08534074       0.12783299      -0.16315279
H        5.26898368       3.63958405      39.63907668       0.00501158       0.21860286      -0.19250636
H        3.87776090       3.70226391      38.59392320       0.13651130       0.31432931       0.13962828
H        3.75056520       4.30563742      40.25327509      -0.11478066      -0.10342161       0.13641858
H        6.18026750       1.41918161      36.41345104      -0.16622410       0.12352324      -0.16188849
H        4.80716417       0.11038591      36.66973263      -0.02293834       0.25409498      -0.04144309
H        4.18010545       2.46540706      42.08432977       0.18776180      -0.19627252       0.07316073
H        4.13617102       0.76892358      41.62190881      -0.00765174       0.03391599      -0.14893833
H        7.06594735       3.34712491      40.48892501       0.13673230       0.03234767      -0.19044877
H        8.02788033       1.90037141      40.65948587      -0.04517654      -0.17144214       0.07776624
H        6.71194295       1.85345433      39.43256276      -0.09048157       0.09712951      -0.08104502
H        6.56561671      23.17100628      39.60403245      -0.14741432      -0.02119966       0.10432741
H        8.07557041      23.46850404      40.26854971       0.24854531       0.32048230      -0.24032426
H        6.03961876       3.39533516      42.91572895       0.22960672       0.04517864       0.04549463
H        5.68193712       1.79932832      43.65517560       0.23735169      -0.02049616       0.25578222
H        8.05227440       0.24339241      43.87508262       0.23489290       0.15072775      -0.10436099
H        8.81115518       0.96021732      42.50686245      -0.03840490      -0.21119916      -0.16128024
H        9.92091335       5.80809086      44.03631850       0.21665098      -0.07368395       0.16224852
H       11.39806916       4.98211421      44.34406838       0.14573867      -0.02399159       0.00027820
H       10.76555745       5.14915844      42.69246965       0.09751253       0.02312019       0.19859307
H        8.26562951       3.03137366      45.71932376       0.07011628       0.07472957       0.03449985
H        6.67931808       3.56240002      45.17788189       0.20811177       0.02550057      -0.11674706
H        6.84769221       1.88940094      45.68011091       0.01814176      -0.03484070      -0.28535714
C       22.14180206      20.53683917      14.56670135      -0.03519734      -0.90653814       0.44798174
C       23.37468903      19.69033121      14.93624862       0.58459084       0.15028003      -0.57851296
C       24.70402919      20.11708166      14.26588703       1.32687183       0.92935207      -0.25492469
C       24.74197519      19.75906813      12.79764660       0.41705156       0.24607830       0.36942139
C        0.74907356      19.38637658      14.91069687       0.20559870      -0.35982777      -0.62391805
O        0.78912450      18.76526184      15.98599796      -1.04601645      -0.47067645       0.12096768
O        1.89373670      19.60506065      14.22477800      -0.00799412      -0.13124968       0.20494045
C        3.08986513      19.03089764      14.87145947       0.25304387       0.28082668       0.07765969
C       25.08678810      21.60986296      14.29542462       0.23904709       0.20806257      -0.25062970
C       25.12940233      22.39143761      15.66277081      -0.90019067      -0.65429330       0.44725567
C       24.72137076      23.81350918      15.29992377       0.49007366       0.66719913      -0.69693998
C       23.99894376      22.04587429      16.84465383       0.15196321      -1.12155221      -0.40769914
O       22.98617881      22.65633153      16.87985016      -0.81505814      -1.72622033      -0.50591601
O       24.31424993      21.01318853      17.63569248      -0.04077317       0.18675152      -0.03110542
C       23.26425775      20.53212087      18.52239427      -0.76008920       0.64461364      -0.72583361
C        1.27913549      22.41027073      16.36168831      -0.21492448       1.03543756       0.98409950
C        2.54911754      23.25472838      16.01775627      -0.15395488      -0.16888749      -0.48072244
C        2.68179351      23.65606604      14.58561832       0.74715933       1.09332392       0.87509203
C        3.70153330      22.38020417      16.37498282      -0.28747125      -0.60679503       0.13939765
O        4.51283553      21.98574235      15.56576325      -1.23306597      -0.73317151       0.43727436
O        3.80205201      22.07853073      17.62990986      -0.32743154       0.42512442       0.00090750
C        4.90120041      21.36022723      18.17468276       0.78372680       0.65581564       0.58917281
C        2.44163292      24.44014638      16.95404443      -0.55665406       0.33495446       0.79443283
C        3.58112251       0.37128515      17.03730080       1.31537260      -0.08411690      -1.00452954
C        4.97645486      24.90407984      17.12320082      -0.59880864      -0.14648531       0.88535865
C        3.54741442       1.28334742      15.80759171      -0.03494134      -0.33377543       0.43212723
O        4.49100838       1.78129130      15.26408397       0.63616172       0.62514905      -0.10879178
O        2.34390415       1.48560366      15.20833517       0.87222727      -0.85201562       0.11013666
C        2.30035217       1.80111607      13.79225291       1.42324458       0.69385387      -0.91169564
C        3.35759951       1.21253065      18.35592574       0.57205894      -0.25640722      -0.35148573
C        2.22047892       2.16508482      18.58269602       0.67661304      -0.38408690      -0.23430722
C        2.29088641       3.52696609      17.90963079      -0.38139177       0.75693029      -0.24011850
C        0.85575865       1.52122958      18.29667647       0.44667796       0.59458339       1.14976282
O       25.05058011       2.04291850      17.88999416      -0.93763837       1.40492320      -0.74997182
O        0.90233640       0.23276836      18.65560551       0.51659606      -0.39418069      -1.08612169
C       24.86873217      24.76299416      18.77674901       0.40091317      -0.15409145      -0.15238237
C        2.18116091       2.28349007      20.14524790       0.23258341      -1.02499849       0.41397563
H       22.23273811      21.57264478      14.81833533       0.03762412       0.00238256      -0.05401961
H       21.26976382      20.23348574      15.11146305       0.03623367       0.05334806       0.05206037
H       21.83100961      20.55816756      13.52304124       0.17040477      -0.05749392       0.02316124
H       23.20952863      18.66476631      14.54651122      -0.05166959      -0.08162422       0.16434139
H       23.42878225      19.61703392      16.02229226       0.10361136       0.21549121       0.03222488
H       23.94344190      20.20510963      12.23393541       0.01408626      -0.21979798       0.02201772
H        0.50613586      20.10366754      12.34731487       0.28569614       0.04156431      -0.11140523
H       24.67334865      18.67981220      12.71470652      -0.01140149       0.01098594      -0.03967658
H        2.96525326      17.95927982      15.09254525       0.17722705      -0.20000013       0.28750564
H        3.89895898      19.30230488      14.16824215      -0.02065341      -0.16125628      -0.19881950
H        3.19696361      19.58816782      15.80845584      -0.07597598       0.36611551      -0.07032268
H       24.36528429      22.11471088      13.66477195       0.02413411      -0.04981858      -0.06260899
H        0.88989581      21.83234859      13.84071570       0.09928795      -0.27458263      -0.09090808
H       23.66915307      23.83531181      15.07083026       0.07934165      -0.08547865      -0.19760678
H       24.87199250      24.58026442      16.04344030       0.02179108      -0.11884857      -0.31435225
H        0.09130270      24.08111963      14.38757642       0.01067615      -0.29545329       0.03975847
H       23.46666094      20.86994286      19.53867975      -0.18890682      -0.14783943       0.21703551
H       22.29558994      20.88533815      18.16485185      -0.00133677      -0.01520739       0.08236720
H       23.25600676      19.43784964      18.39412480       0.17417524      -0.15246766      -0.36094117
H        1.29557236      22.02474929      17.37278976      -0.04012383       0.26793997      -0.08423030
H        1.82394798      24.23331017      14.29936136       0.13801532       0.05768230      -0.09225665
H        2.53641698      22.75436063      13.98168803      -0.02325756      -0.20196028      -0.13181223
H        5.04738933      20.40823818      17.69000138       0.23024468       0.03949919       0.21487701
H        4.53822896      21.25670976      19.17101479       0.15503879      -0.00810319       0.15559700
H        5.78280050      22.01422796      18.20694275      -0.07667690       0.16945893      -0.24839921
H        2.21645351      24.14978438      17.91459011       0.11207878       0.01959629       0.01777423
H        1.53322503      25.00715233      16.75182602      -0.05426277       0.19673452       0.02446043
H        5.18176188      24.43931485      16.14157649      -0.11599014      -0.14979489       0.37655590
H        5.19195022      24.20929576      17.96958716      -0.06292406       0.03697607       0.15607379
H        5.71261347       0.60122364      17.15330138      -0.25930243      -0.09754163      -0.08317606
H        1.21421364       1.90328765      13.52074507      -0.08403957       0.08267744      -0.02601757
H        2.80775274       2.65343981      13.64632954       0.01353692      -0.22101917      -0.02019813
H        2.56794940       0.90164522      13.19476510      -0.20491217      -0.02783002      -0.30163421
H        4.25512179       1.65936818      18.65998362      -0.09194488       0.08025164       0.54617950
H        3.22273345       0.41714535      19.08299995       0.09255611      -0.18079900      -0.24791823
H        2.53136618       3.41520092      16.85319446      -0.14873432      -0.13430593      -0.01166548
H        1.23997047       3.79840418      17.97569297      -0.05287524       0.11483238      -0.35911923
H        3.04173310       4.17366035      18.38639085      -0.11146108       0.31552927      -0.31690938
H       24.81495424      23.72181336      19.05170795       0.04238847      -0.18080469       0.02934402
H       24.11037151       0.01108139      18.02837847      -0.07827290      -0.20417436      -0.25967070
H        3.07099821       2.86325426      20.25783809       0.16728973      -0.15121159       0.12333076
H        1.45594122       3.11338257      20.19038429       0.19478274       0.08076338       0.16255145
C       10.48731025       3.77290499      24.09690084       1.29748809      -0.15518426      -0.85792002
C       10.91331111       4.61272258      22.91530133      -0.37479236      -0.23359275      -0.47739757
C       12.41733888       4.75188683      22.78498424       0.53487625      -0.30593411       0.57734709
C       12.57975209       5.86849150      21.70170586      -0.74084137       1.11668366      -0.52929336
C       13.14650031       5.03538993      24.02171170       0.23033290       0.19595768      -0.07507101
O       12.89406501       5.22728970      25.21412172       0.95892094      -0.15552561      -0.92930022
O       14.52629689       4.87097301      23.65446762      -0.90997863       0.12425221      -0.16904647
C       15.34213520       4.65230243      24.57154501       0.87805533      -0.36435819       0.12916487
C       13.07813930       3.44447626      22.46124797      -0.20608811      -0.07946874      -1.15984896
C       13.13452361       2.16655500      21.68317752       0.47348292       0.34779209      -0.51809965
C       14.37230737       2.84764640      22.31557473      -0.92164960       1.03216507      -0.37133070
C       13.04335524       2.25874078      20.13379321      -0.84034555      -0.23886347       0.54516602
O       12.09718445       2.57102964      19.44675680      -1.12293915       1.33126381       1.03626224
O       14.32524234       2.14975476      19.59711313       1.31961202      -0.12850692      -0.14468457
C       14.45343204       2.18469048      18.10799011      -0.64753630      -0.23545780      -0.15868327
C       12.72973853       0.78500072      22.25096013      -0.48829301       0.75110815       0.10915103
C       11.45366720       0.08911259      21.70729492      -0.56501361      -0.01587080       0.56128306
C       10.30090784       1.00536956      21.53391570       0.62500371      -0.66427440      -0.99653553
C       11.68158849      24.61049951      20.33779261      -0.63764293       1.10119630       0.35066502
O       12.50337530      25.02253854      19.58484016       0.85857015       1.52661631       0.10179357
O       10.71917256      23.58195210      19.93078210       0.49446812      -0.70382673      -0.14865436
C       10.88710376      22.89606913      18.65644606      -0.37270170       0.02178030      -0.04430570
C       11.08450323      24.00139023      22.67179885       0.16524710       0.20830501       0.18775427
C       11.97615619      22.78480292      23.15091627      -0.32687419      -0.06596400      -0.90931904
C       13.11002263      23.18879239      24.08195966      -0.46460659       0.51587705      -0.83507427
C       12.81116318      22.24060321      21.84611658      -0.10386191      -0.10085973      -0.34545248
O       13.69430687      22.85884849      21.36389788      -0.66749673       0.48663375      -0.03781353
O       12.33620945      21.05670595      21.34163273       0.62206933      -1.43664801       0.16771202
C       13.19017991      20.24453602      20.77320447      -0.40488654       0.67289514       1.26781551
C       11.06565793      21.59522103      23.58188635      -1.32929760      -0.09448758       0.28777243
C       10.19374507      21.43475455      24.89633240      -0.12697634       0.48735369       0.22130635
C       10.92557742      21.65846876      26.17469272      -0.99325299      -0.60730989      -0.28285792
C        9.69029460      19.99666463      24.87769666      -0.02335258       0.16304476      -0.05464170
O        9.25436840      19.39596895      23.91798622       0.94210001       0.25385837       0.04581797
O        9.61876254      19.43528154      26.10757230      -0.87743210       0.60052952       0.20725644
C        9.31639439      18.05347433      26.07081930       0.93735418       0.11304447      -0.21144436
C        9.03239273      22.41537629      24.95680197       1.06234148       1.00072091       0.12043391
H       10.90410708       2.72020112      24.12775827      -0.07793293       0.05450093       0.04280730
H       10.91948408       4.29807300      24.97275630      -0.30837712       0.08615203       0.05595607
H        9.40030648       3.78281142      23.94911396       0.16011742      -0.01601294       0.21031404
H       10.44298115       4.27552804      21.99121116      -0.11971794      -0.03495006      -0.15310055
H       13.65189694       6.07883289      21.64429569       0.07616590      -0.28522782      -0.32700644
H       12.06826467       6.76621771      22.12066115      -0.11051755       0.06587906      -0.09471735
H       12.14158488       5.57913146      20.75497181       0.08893622       0.03915321      -0.08156129
H       14.94449496       4.68839709      25.59591735      -0.29851562       0.12728207      -0.05423190
H       16.34594839       4.28274206      24.24578584      -0.13777519       0.00982732       0.12337985
H       15.03204717       3.30659523      21.58980588      -0.04638764       0.40829953       0.19857164
H       14.84311816       2.21358655      23.03338736      -0.06961081      -0.06626183       0.18568191
H       15.39383720       1.74883998      17.80705652      -0.14372485      -0.10452280      -0.00785226
H       14.40564444       3.23194817      17.86032412       0.07652830      -0.05537964      -0.22738006
H       13.62739267       1.60317113      17.74752025      -0.05692976       0.11677661      -0.18435980
H       12.57813570       0.85873847      23.33889555      -0.06101240       0.30792290       0.03557752
H       13.62056011       0.09859473      22.21875589       0.05197879      -0.15176170      -0.45960767
H       10.08598239       1.51512995      22.50316988       0.09372436       0.44371131      -0.15504850
H       10.54008918       1.74056466      20.74504816      -0.12478183       0.04081451      -0.34199110
H        9.46929397       0.36488150      21.21734342       0.05421922      -0.05577934       0.22934943
H       11.52897120      23.54592366      18.01749910      -0.11825539       0.04049725      -0.08087017
H        9.93181528      22.96640503      18.13447544       0.04481622      -0.14287718      -0.06422753
H       11.37862809      21.94684875      18.84449815      -0.13260639       0.06084607      -0.10922006
H       10.20022629      23.54732006      22.19530347      -0.17867151      -0.11798256      -0.05653934
H       10.68437647      24.27253504      23.63731347      -0.08490089      -0.07638756      -0.03309285
H       12.46647878      23.47382901      24.91370247       0.08977746      -0.10691194      -0.07413140
H       14.15967102      20.19945083      21.20691482       0.01740441       0.08309498      -0.11008345
H       12.70969974      19.36289139      20.36062965       0.03814817       0.02439267       0.08892882
H       11.88034704      20.82643514      23.59516772      -0.13554017      -0.17570083      -0.34261532
H       10.45118785      21.38349190      22.70905393      -0.35614270       0.19755968       0.09103127
H       11.41841961      22.64669903      26.17182035       0.06985350      -0.14280606       0.11081828
H       11.77040660      20.92329333      26.17275695      -0.09962002      -0.14911203      -0.03834573
H        9.52762087      17.63041446      25.11015554       0.06805745       0.06867000      -0.02474024
H        8.27670639      17.84545256      26.27268281       0.05829778      -0.09594610      -0.13778015
H        9.90944195      17.52676337      26.80456261       0.08606065       0.03893715       0.06940634
H        8.23286316      22.16635858      25.67266709       0.09907912      -0.00920928      -0.10824259
H        8.56055429      22.38161805      23.97898135       0.19696830       0.03337420      -0.14622677
H        9.40074656      23.43657994      25.13292862      -0.03422239      -0.07111922      -0.03397325
C       21.70239795       2.03175146      28.26103319       0.88371031       0.60081442       0.82142834
C       20.83465275       3.15887101      27.86998793       0.22640086       0.45716028       0.53895948
C       19.65458285       3.66473035      28.79263473       0.91870839       0.06878092       0.75660635
C       18.50862021       2.76132123      28.83486916      -0.38065968       0.38498313      -0.51365402
C       20.09811552       3.80820990      30.24673445       0.92461922       0.43547760       0.43570987
O       19.82649276       4.74477213      30.94770486       0.58427650       0.11875481       0.96359764
O       20.75268501       2.74817367      30.70595820       0.35110005       0.83732834       0.75704379
C       21.20020055       2.97437630      32.04649418      -0.00685719       0.90672229       0.34566219
C       19.25024661       5.09187951      28.36110427      -0.23692655       0.09611347       0.11219174
C       18.73921931       5.39233226      26.93781325       0.57419215      -0.63151356      -0.47441419
C       17.71683099       4.41768756      26.44920562       0.43759843      -0.74110016      -0.47569025
C       17.90245082       6.73073887      27.06785692       0.35022756      -0.31469051      -0.14783443
O       16.86849096       6.96805434      26.52045504      -1.30793693       0.29747786       0.39601957
O       18.53533993       7.63676927      27.84934233       0.61687138       1.44408507      -0.99662021
C       18.04733345       9.03905345      27.79190021       0.27037269      -0.25450917      -0.42657788
C       19.90912530       5.78806412      26.05715966       0.93696820       0.33635920       0.29356588
C       19.92069816       6.04329956      24.52810040       0.20946949      -0.71924146      -0.00158060
C       21.30944665       6.65028098      24.17737169       0.24304379       0.39077854      -0.39196769
C       19.84498218       4.68621837      23.78940267      -0.37963671       0.02362372       0.00978289
O       20.78824543       3.96021574      23.51560200      -0.09305879       0.30665288      -0.11658824
O       18.57643201       4.40538868      23.51132272       0.03551015      -0.80152847      -0.56039229
C       18.29860286       3.23121588      22.73021173       0.28176949      -0.38045432       0.30601810
C       18.78994293       7.06529895      24.14111722       0.71249244      -0.41194265       0.43063539
C       18.53505748       7.35791702      22.52982984       1.22190705       0.26464070       0.09526695
C       17.09095049       6.85181364      22.27874461       0.73902416      -0.05835836      -0.11183950
C       18.66616289       8.93102290      22.40071237      -1.18512639       0.10927547      -0.17488398
O       19.64718757       9.47526097      22.83475640      -0.03625143       0.23118073      -0.56604502
O       17.65275970       9.51392162      21.77021825       0.33015138       0.57719088      -0.01392721
C       17.76092998      10.95777227      21.63623717       0.13443557       0.41175276      -0.46606927
C       19.50719205       6.74157712      21.56805157       0.27073716      -0.21253463      -0.84970462
C       19.16498597       6.72479529      20.07166038       0.35024710       0.34290914      -0.73270487
C       20.45081439       6.18166778      19.34284473       0.20938016      -1.16819612      -0.97479723
C       17.97664179       5.88231466      19.55795691       0.39088018       0.40437182      -0.45302510
O       17.02930045       6.32167022      18.90004735       0.01269585      -0.61929703       0.11948767
O       18.10627978       4.56452627      19.88846655       0.88738021       0.17054413      -0.61969091
C       17.05136846       3.67371195      19.51285451       0.00860705       0.25368326      -0.50646247
C       18.87799875       8.11485272      19.54352275       0.16680812      -0.02972109      -0.19990618
H       22.19552454       1.95664847      27.20867078       0.02202758       0.03023925      -0.28236978
H       20.31152156       3.04244540      26.88472219       0.15949836      -0.04779032       0.04136685
H       21.45075496       4.11096294      27.75769943      -0.08158840       0.08179963       0.07291600
H       17.63195694       2.87575582      29.46935172       0.18219825       0.17130451       0.01160705
H       18.44287557       1.91967477      28.15057287       0.21447155      -0.02858957      -0.11473523
H       21.92374929       3.81024323      32.10287014       0.11449523      -0.22299436      -0.15901883
H       21.72946423       2.08793671      32.35310052      -0.02983120       0.11155434      -0.02517867
H       20.41516703       3.15127300      32.74043415      -0.05706089       0.17785621       0.09755414
H       18.46236287       5.35167338      29.02872656      -0.00817538      -0.28268986       0.07934681
H       20.11416186       5.69488960      28.57579866      -0.07216885      -0.04126478       0.06508996
H       17.04959378       4.17809313      27.25426436       0.00720965      -0.13816497       0.22234512
H       18.15729063       3.46628319      26.08966037      -0.03127709       0.04304011      -0.15433242
H       17.16496548       4.91709670      25.69026031       0.02063876       0.10201838       0.09953128
H       18.70014234       9.40527925      28.59982324       0.08678546       0.12887246      -0.10243319
H       18.65963115       9.46268189      26.97253799       0.00174329      -0.01954441       0.28909766
H       20.28974012       6.73278251      26.43619996       0.12629553      -0.12145863       0.02041892
H       20.68871727       5.06645066      26.21842597       0.00579838      -0.14318846       0.18949188
H       21.48227496       6.31622554      23.17625084       0.18631013      -0.09537312       0.18442419
H       21.29637995       7.71636431      24.12885016       0.26755237      -0.17922283      -0.10660844
H       21.96417791       6.29200404      24.92406448      -0.16667420      -0.00324801      -0.12679773
H       19.08332246       2.96245984      21.99668426      -0.10905695      -0.22853088      -0.18732335
H       17.41029124       3.55131513      22.20766280      -0.09503530       0.00746858       0.08952405
H       18.07673959       2.36239433      23.37818891      -0.08437627      -0.09179993      -0.25251077
H       19.15447090       7.98887413      24.56906230       0.05033550      -0.02656714       0.01806573
H       17.88220309       6.84998846      24.70221682      -0.03300552       0.03255863      -0.19017361
H       17.14225609       5.75789087      22.29126611      -0.04162237       0.01347228       0.19507959
H       16.58916824       7.17762885      21.38405473      -0.06133556      -0.05302698      -0.05080514
H       16.53177023       7.12869526      23.17064646      -0.13001040      -0.29200768       0.08510146
H       17.89060049      11.45259936      22.60073267       0.05256892      -0.10537524      -0.07520704
H       16.76378262      11.23798265      21.26479217      -0.01916958       0.09396015       0.10518714
H       18.56014037      11.22622402      20.96600213       0.11157133      -0.12584150      -0.00105373
H       20.42759358       7.32058602      21.60892792       0.10357213      -0.09070435       0.08075205
H       21.38283928       6.76270799      19.56093871      -0.16292630      -0.11946803      -0.08823219
H       20.57665587       5.14484229      19.61030930      -0.22827710      -0.07410457       0.06107938
H       20.30887386       6.17977272      18.25302042       0.00932992      -0.15362983      -0.08068277
H       17.26059892       2.73398087      20.02861306       0.28233269       0.07359421      -0.07689975
H       16.07077909       4.07610294      19.71251902       0.00721628      -0.12636345      -0.17532184
H       17.86931318       8.40787411      19.82267825      -0.04384738      -0.22995762      -0.25533297
H       18.80327411       8.15613087      18.46119900       0.26672666      -0.02796577      -0.06384051
H       19.55018337       8.89559798      19.90448468       0.05216821      -0.06015751      -0.14088746
C       24.23067827      16.29596565      62.37526884      -0.16947618       0.46734424      -0.42724846
C       24.26657354      17.55421065      62.85421884       0.36403041       0.08453829       0.02707665
C        0.34638393      18.30545879      63.45786726      -0.61225784       0.29678147       0.29627004
C        1.00590933      19.00966667      62.35655257      -0.32400717      -0.98435735      -0.00654714
C        1.33245290      17.23567971      63.95674309       0.56149290       0.54275799      -0.13700129
O        1.12523563      16.59801886      64.99450419       0.04750212      -0.18653812       0.23581614
O        2.45468508      16.87156655      63.18187154       0.21564689       0.55737824      -0.22295186
C        3.08906472      15.60024717      63.41644053       1.80501319       0.35171805       0.30091021
C       24.83001903      19.21735392      64.56720466      -0.04429182      -0.94274392      -0.77902545
C        0.49380044      20.06075535      65.50900663       0.44430075      -0.68745755      -0.52765141
C        0.60012561      19.33928639      66.87326109       0.43065948      -0.10794840       0.04124937
C        1.94708758      20.44043192      65.24849202       0.66440167       1.03805087       0.11202425
O        2.63374865      21.32657543      65.68196619       0.14494107      -0.25487811      -0.31843196
O        2.47126988      19.46688979      64.56126277      -0.52223303       0.41445478       1.79815023
C        3.83890730      19.39027772      64.41314756       0.41483503      -0.18932884       0.10981370
C       24.94966385      21.42342306      65.97676211       1.51671599      -1.33864540       0.30143188
C       24.77261309      22.56892984      64.82996614       1.30902869       0.43266738      -0.73598816
C        0.79364939      22.65775471      63.78367130       0.00111300       0.59592459      -0.33898291
C       23.63433349      21.95842717      63.97663732       0.16619549      -0.40255230       0.12543691
O       23.68666632      21.79428340      62.76982825       0.60070185       1.05690907       0.44838106
O       22.53815221      21.65429471      64.63116297      -1.32283349      -0.18971327       0.76813973
C       21.41773555      21.27717442      63.78690151      -0.18645832      -0.26864180      -0.47519138
C       24.51974412      23.93043240      65.40029790       0.32446319       0.00646603       0.35059591
C       23.65367834      24.47910837      66.58470767      -0.00765199      -0.37755299       0.27879500
C       23.96275384       0.65650756      66.86816402      -0.50520952      -0.77022235       0.02576175
C       23.79510925      23.46530994      67.82788569      -0.40404242       1.04179541       1.12957764
O       23.03712450      22.60168529      68.10721968       0.36149941       1.06121816       0.11025250
O       25.07719490      23.56751641      68.31361870       1.21421631      -0.73863201      -1.86866450
C        0.27345710      22.60566180      69.35434107       1.25259771      -0.35954762       0.86499431
C       22.05138675      24.63633903      66.27441994       0.61652011      -0.01393941      -0.28361144
C       21.65043910       0.37347880      65.07954612       0.50089001       0.96541440      -0.82128634
C       20.44877395      25.00914339      64.32786844       1.11703895       1.14141965      -0.77381135
C       21.77511070       1.76412640      65.35777230       0.68529365       0.78898544       1.52735266
O       21.13898209       2.42261669      66.12233815       0.10177020       1.39850292      -2.15618456
O       22.63239935       2.42624319      64.51631357      -0.54551927       0.10647965       1.47758239
C       23.12060506       3.77280757      64.85022097       0.15553932       1.08382802      -0.14597936
C       21.77682997      24.98856454      63.76432141      -0.59001474       0.15562493       0.57390175
H       23.39812603      16.06708295      61.75438583       0.06665827       0.10002636       0.38445897
H       24.97218335      15.47645446      62.40817358       0.26261353       0.09355802       0.30492353
H       23.54284339      18.19846655      62.52601925      -0.26803865       0.11004386       0.21702209
H        0.30849565      19.70832218      61.97212576       0.06096103       0.17465279      -0.02803047
H        1.15893640      18.33788281      61.51655530      -0.38312432      -0.30295404      -0.12042283
H        3.35709208      15.42763844      64.43697640      -0.16131904      -0.07761019       0.15999238
H        4.09247429      15.65837376      62.97611521       0.07377976      -0.01791775      -0.05322096
H        2.52433738      14.77354236      63.05836558      -0.01809348       0.02534146       0.00431197
H       24.04038205      19.85225168      64.11195314      -0.29849148      -0.22678627      -0.11637025
H       24.40859404      18.50742768      65.28637853      -0.11862989      -0.01777506      -0.26330790
H       24.79764696      19.47218790      67.43616623       0.06410700       0.02440034       0.22640274
H        1.21383510      20.03448220      67.52385800      -0.13019931       0.02627173      -0.05689255
H        0.88174944      18.29770405      66.91074179      -0.30787071       0.18972663       0.01826238
H        4.06588175      18.36615586      64.11145168      -0.07365841       0.11102624      -0.14310210
H        4.41894482      19.70332660      65.25704427      -0.09163027       0.05761332       0.11899987
H        4.25324950      19.97859682      63.59381766       0.14677320      -0.00348301       0.05810016
H        0.51527347      21.85553342      66.69949963       0.28776124      -0.05159853       0.05780823
H       23.92072855      21.13500987      66.32320843      -0.09363630      -0.07396551      -0.26751778
H        0.53243862      23.27779772      62.97117524       0.06778367      -0.17812649      -0.03583722
H        1.70172827      23.01257722      64.18767031       0.04846181      -0.19939042       0.10633818
H        1.10287573      21.67582415      63.48271630      -0.18652436      -0.06235026       0.11933530
H       21.65472284      20.30212576      63.35544623       0.16566346       0.02203496      -0.10034881
H       20.54284429      21.09674993      64.35055585      -0.07828577      -0.12112261       0.23049990
H       21.22849936      22.06019367      63.02411415      -0.01017920       0.27495919       0.08968434
H       25.08243668      24.77256754      65.01401676       0.38806539       0.44309733       0.32218240
H       24.85793746       1.15562230      66.48170058      -0.32055929      -0.02895562       0.05204239
H       23.64295517       1.18315520      67.76902381       0.32030911      -0.01016857      -0.11799825
H        0.11899284      21.60964260      68.91366787       0.18920360      -0.01137562       0.01744849
H       24.78520123      22.72962316      70.24071637       0.02519017      -0.03266035       0.00074293
H        1.32658757      22.68756121      69.49968934       0.13758946      -0.01980983       0.24327083
H       21.77210749      23.62035528      66.11746391       0.36834629      -0.09639890      -0.32491947
H       21.48649671      24.95499901      67.18344645      -0.09205997      -0.01787895       0.08874932
H       19.89541483      23.96864213      64.57429798       0.24238331      -0.09041718      -0.21138810
H       19.79220300       0.58097037      63.98229511       0.83996618      -0.40566576      -0.46935167
H       22.40880806       4.57220759      64.62642742      -0.34985205      -0.18975956       0.07285565
H       24.02976526       3.96910160      64.30219526       0.01403410       0.11651152       0.14936761
H       23.35361310       3.79382297      65.92603376       0.18687739       0.07679372      -0.09086390
H       21.87463722       0.45950956      62.82425065      -0.58494319      -0.47471987       0.23997945
H       22.50693959      24.22660646      63.72659213      -0.28851868       0.29937420      -0.07034945
C       21.70867900      24.10904609      34.14405837       1.17072125       1.64007490      -0.05677088
C       20.36769676      24.15257194      34.85047529       0.02036010       0.07934269       0.53787799
C       19.74236256      22.71007507      35.21729132       0.07903654      -0.03840368      -0.25862148
C       19.75458207      21.63960453      34.08732227      -0.53811276      -0.34155295       0.72101094
C       20.46046619      22.13999100      36.43464459       0.00463845       0.11846607       0.93726601
O       21.09015352      22.76373378      37.19092016       0.43119756       0.40506703      -0.60734373
O       20.31504964      20.83638312      36.54118495      -0.19739664       0.77841441      -0.70156440
C       20.48632144      20.16757261      37.76795416      -0.15861812      -0.21786493      -0.10128677
C       18.37188774      23.02913867      35.77357368      -0.06040986      -1.10374943      -0.05314890
C       17.32627746      22.17472377      36.32631159       0.60951460      -0.19887712      -0.66889593
C       17.76796850      21.68189178      37.65490745       0.20462979      -0.70473631      -0.31172296
C       17.01905334      21.12752980      35.37319544      -0.02840320       0.05444380       0.44127750
O       16.54322117      21.32081918      34.31540546       0.61420620       0.31070627       1.00175612
O       17.23897548      19.90690800      35.92570772       0.19161947      -0.75175938      -0.02316374
C       16.91153856      18.77525989      35.10953335      -0.07476903       0.01555549       0.56723971
C       16.08479407      23.12024325      36.40423103       0.07579763       0.13867584      -1.00918106
C       14.62807633      22.56881827      36.73001177       0.58031798      -0.92867014       0.28797551
C       14.68068595      21.38838721      37.68778122      -0.51508734      -0.29469208       0.82432060
C       13.90289662      22.20309195      35.41761477       0.60187805      -0.33776195      -0.27741545
O       13.35400649      22.98846878      34.68631968      -0.06586062       0.00898672       0.03076175
O       13.91738725      20.87915101      35.10002804       0.61825759      -0.16494113       0.49335950
C       13.46147852      20.50137717      33.71635395      -0.06606677      -0.08574384      -0.01898259
C       13.70474370      23.72513199      37.17102155      -0.19920818       0.90590079      -0.35084251
C       13.69304555      24.09747478      38.67898864       0.65840216      -0.24500766      -0.09834037
C       15.10500440      24.20885844      39.27847084      -0.74391963      -0.34776066       0.14452086
C       12.88686872      22.99324291      39.37398905       0.24036065       0.39512306      -0.66564023
O       11.81426194      22.55299974      38.98335456       0.38646373       0.59349005       0.50565726
O       13.43591850      22.71022421      40.52957606      -0.43284916      -0.13740557       0.07760394
C       13.01644363      21.63832060      41.27589397      -0.13403991      -0.26013860       0.79765772
C       12.80921436       0.14853201      38.81362174      -0.49568922      -0.51743976      -0.25007752
C       12.43053622       1.00401034      39.93994102       0.20221869      -0.04769490      -0.04247711
C       11.53155995       2.14776132      39.36078746       0.14844091       0.14049980      -0.78061444
C       11.58442103       0.12707098      40.89315224      -0.11525554      -0.10695628      -0.84287153
O       10.41377900      24.95946805      40.79622682       1.04993586      -0.85507426       0.17675044
O       12.32974958      24.98299730      41.97587807      -0.05406184       0.24023642       0.06825416
C       11.68332108      24.37915955      43.03647459      -0.74290696      -0.39255369       0.39083620
C       13.64399264       1.59288535      40.73197985       1.02214999      -0.11903976      -0.36072290
H       21.66880760      23.71499537      33.12278809      -0.09607347      -0.08638737       0.05046997
H       22.38403958      23.41682862      34.62840202       0.09222180       0.12952059       0.18557681
H       22.26808524      25.04677047      34.09835816      -0.00731280       0.14989098       0.00060616
H       20.34857154      24.70720829      35.78654016      -0.18376563      -0.09332860       0.03505034
H       19.64344592      24.63843889      34.21369075      -0.13547067      -0.06000921      -0.08796457
H       19.14098769      22.07732309      33.31922872      -0.07214587      -0.04425613       0.18793025
H       20.71886463      21.87520608      33.67112796      -0.02789899      -0.35411568       0.06975446
H       20.00925943      19.16203767      37.49348918       0.07587309      -0.34440491       0.05130055
H       18.11361197      24.07767631      35.70487866       0.05100149      -0.10655945      -0.04602394
H       17.16164962      20.88772799      38.11477399       0.23628059      -0.14597246       0.09706004
H       17.81743081      22.58515622      38.27504669      -0.07004628      -0.09786826       0.08608768
H       16.56667973      18.00555991      35.80000144      -0.09023929       0.00683577       0.19566703
H       17.77215393      18.38679470      34.55113531       0.08861262      -0.07217799       0.15885002
H       16.14596068      19.04868667      34.40827462       0.01095732       0.09015914       0.04844182
H       16.35803072      23.95770127      37.07174735       0.26258485      -0.04218849      -0.07425561
H       16.01739216      23.59422732      35.40955353      -0.27147933       0.04422099      -0.02770776
H       15.28392682      20.56611612      37.30457537       0.24480464      -0.05600803       0.14318712
H       13.69440002      21.06851686      37.75934241      -0.00176188       0.00898909       0.01112723
H       15.04542707      21.58432310      38.67758695       0.07597152       0.07354689      -0.04354317
H       12.78347219      21.21180028      33.30089668      -0.08079509      -0.17782141       0.00170896
H       13.00527012      19.53739662      33.77211366      -0.00866016      -0.04336938       0.15553580
H       14.33316360      20.52206884      33.08372935      -0.00190445      -0.20953249      -0.25716405
H       12.69389499      23.45159322      36.89990635       0.06496776      -0.03099225       0.10531885
H       13.91542832      24.60200126      36.58977254       0.06979934       0.00920632      -0.02285674
H       15.65887459      24.99487174      38.81931838       0.20895617       0.10404627       0.21601865
H       15.08416156      24.49877628      40.31593762      -0.08605229       0.00808530       0.11868612
H       15.61972982      23.25460276      39.11869647       0.29429855       0.19277858       0.17164385
H       12.98059306      21.87675825      42.31960949      -0.06081988      -0.06524455       0.05504229
H       12.52621278      20.88850443      40.73130911       0.30137158       0.12414673       0.00831651
H       12.23180341       0.39665559      37.93585673      -0.06326920      -0.06509737       0.14326333
H       12.00513235       2.62811727      38.50985247       0.27298092       0.36654359       0.03923789
H       10.58218141       1.72748454      38.97046592      -0.04312030      -0.08846844       0.22918506
H       11.27135295       2.87220718      40.11827333       0.03653242       0.01113485       0.11170467
H       12.54493979      24.07970962      43.69834504       0.02266025       0.02434570      -0.22788635
H       10.61860093      24.46087153      43.20385549      -0.17823504       0.13766252      -0.02556110
H       14.31083666       2.13396515      40.06271300      -0.10180751       0.43007966      -0.10208442
H       13.31559845       2.34225868      41.45099836       0.09164807       0.03306130      -0.21431394
H       14.13644938       0.83451982      41.29976010       0.00248174       0.06361709      -0.06955608
C       14.69251264       2.78375767      11.99155539       1.03608868       0.27329658      -0.00693511
C       14.26106389       1.82904802      12.99538748      -0.34251123      -0.04344534       0.05814582
C       15.30454773       1.24428247      13.97640995      -0.47365779       0.21655436       0.67807630
C       14.57420100       0.29071555      14.79204425       0.18908394       0.49196714      -0.29901342
C       15.91987967       2.27048565      14.90418869       0.24847382       0.25198326      -0.29539842
O       16.91796871       2.02698911      15.48325422      -0.59661827      -0.12018256      -0.62143141
O       15.28178629       3.46348960      14.97388760       1.20608470      -0.51720686      -0.91165420
C       15.84669867       4.50330967      15.79003777      -0.03083818      -0.30471764      -0.61219578
C       16.63957663       0.63173989      13.31946340       0.39639148       0.39748294      -0.91026045
C       16.45399150      24.42842555      12.43305066      -0.59709193      -0.71973996      -0.61860906
C       15.26495940      24.53617919      11.53110680      -0.01696376      -0.24042037       0.41608053
C       16.39884340      23.18123992      13.38199274       0.05388630       0.29966083       0.23169597
O       15.54092519      22.34883794      13.36369591       0.30655812       0.04714872       0.74942026
O       17.34649591      23.29648365      14.29169453      -0.03742338      -0.19546225       0.12088010
C       17.35603514      22.56605397      15.49238023       0.62794771      -0.32765048       0.57389458
C       17.92337995      24.41732627      11.73541051       0.52107325       0.22305731      -0.35843001
C       18.30465181      23.26014399      10.73555840      -0.34346425      -0.43913570       0.18241105
C       17.36908623      23.31077384       9.51683837      -0.02951948       0.48522762      -0.70505120
C       19.68388449      23.81739743      10.26970744       0.27598849      -0.07967456      -0.65247855
O       20.80630775      23.33269748      10.42547831       1.75242718      -0.93769485       0.88468873
O       19.62228293      24.98970860       9.68386737      -0.02305612      -0.10116004       0.00421157
C       20.68765157       0.38132155       9.12779446      -0.58970421      -0.73160915       0.76811134
C       18.62395164      21.87834513      11.36455582      -0.06958146      -1.05584985      -0.09663207
C       18.38747784      20.54627313      10.56634413      -0.28339708      -0.86204558       0.79353825
C       18.94909564      19.42461181      11.30344855       0.32411435       0.35121864       0.38056233
C       16.86634978      20.11938745      10.34830312      -0.75383326       0.46784469       0.46519263
O       16.38104826      19.83683958       9.26793254       0.86244515       0.51927974      -0.01192624
O       16.22957026      20.14616974      11.51220356      -0.39818526       0.39086131      -0.48012899
C       14.90317472      19.96861376      11.49612382      -0.50896567      -0.36663326       0.30095278
C       18.88200787      20.41037681       9.09680437       0.51007184       0.44704261      -0.43517587
C       20.36065385      20.75347884       8.84075395      -1.22643659       0.64368788      -0.76406644
C       19.79266506      19.32869917       8.67236135      -0.22198101      -0.79534068      -0.46160117
C       21.10703174      20.77381599       9.98909015      -0.15667543      -0.31414731      -0.42688515
O       21.74106359      20.26846066      10.83618746       0.47648258       0.96350885      -1.00299133
O       23.09039360      22.19594889       9.10719096      -0.04559645       0.77597774       0.08215550
C       24.19197416      22.17178073       9.51022430       1.72030619      -0.07351816      -0.52069796
C       20.67075620      21.54055695       7.56599918       1.26128087      -0.32460876       1.87033937
H       15.02824835       2.52941070      11.00732320       0.12084026       0.00908189      -0.00953143
H       14.62334396       3.81730834      12.22289779      -0.01050738       0.00240876      -0.03579066
H       13.42188147       2.22973655      13.62875388      -0.00480200       0.05451312       0.32157478
H       13.86834263       0.86994413      12.64603347       0.01870832       0.14119283       0.28861861
H       15.18166495      25.01142600      15.64344455       0.22703218       0.02647588      -0.24669344
H       13.77853640      24.82384537      14.36641814      -0.36739823      -0.13166949       0.03949722
H       16.06776585       4.17232128      16.82220890       0.16385270       0.19152025      -0.05024391
H       16.81454130       4.85504057      15.42154857       0.05579107       0.22595774      -0.06693496
H       15.12362226       5.33094960      15.67880689       0.04829739       0.04101076       0.02081258
H       17.32503590       0.32437799      14.09965875       0.12293354       0.03118537      -0.00614534
H       17.17107833       1.32493906      12.65396477      -0.13225387       0.09024745       0.04080208
H       15.30887789      23.31633802      11.34196248       0.06361633       0.07844188       0.16228817
H       18.23977101      22.95225384      15.90065007      -0.10792617       0.06562610       0.00666561
H       16.46903208      22.85229392      16.02999870      -0.12561420      -0.06394840       0.20658180
H       17.89674308       0.20071161      11.14383614       0.06480687      -0.06365235      -0.11800712
H       18.64243087      24.60361522      12.51447285       0.01600973      -0.26583986       0.07358816
H       17.18693447      24.33356693       9.35202325       0.07488147       0.20689564      -0.04020083
H       17.69487562      22.85972560       8.60209394      -0.01977587       0.13164014      -0.03449748
H       16.46056661      22.83114881       9.86327983       0.26057787       0.00749819       0.30987733
H       20.38940589       1.06158523       8.36011057      -0.27964736       0.09793725      -0.12276578
H       21.63914592       0.31571992       9.66304813      -0.28000226       0.21489961      -0.22218433
H       19.67199912      21.84137326      11.55782329      -0.26244620      -0.08883749      -0.05313667
H       18.14422888      21.67626283      12.33995964      -0.13577592       0.20248527      -0.17834712
H       18.51308916      18.47418159      11.02390317       0.33750497      -0.04684912      -0.05817407
H       19.18039389      19.50253958      12.33447241      -0.22845278       0.13619713       0.12744744
H       14.66079877      18.93148755      11.22805436      -0.12112934      -0.12651298       0.18399840
H       14.61902057      20.15440806      12.50104985       0.32683914       0.16838795       0.03147970
H       14.42718702      20.65274555      10.83841401      -0.05370201       0.15047062       0.22869083
H       18.35154955      20.67572472       8.22254591       0.21308284      -0.22893834       0.17784183
H       19.75912705      19.12547876       7.59165922      -0.42134295      -0.15277438      -0.01375647
H       20.13451091      18.55616806       9.32793142      -0.12606490       0.17927682       0.18046560
H       24.90296798      22.97288131       9.36653472      -0.08246610      -0.29455446       0.03592876
H       24.53407019      21.22313378      10.06421047      -0.00463284      -0.15651950       0.01074423
H       20.05646412      21.41841687       6.68745619      -0.27304837      -0.43354165       0.28804294
H       21.71495150      21.41152214       7.12376900      -0.02426849      -0.15009144      -0.28950229
H       20.76594202      22.55658947       7.92605103      -0.10830326      -0.16051648       0.05940652
C       11.23734764      16.83286342      20.47331322      -0.90247324       0.13115286      -0.17116581
C       10.32309925      17.52479354      19.50579003       0.14053294       0.19073561       0.28026563
C        8.83807680      16.95987938      19.38174085      -0.55199726      -0.93467452      -0.50116015
C        7.94884305      17.48419123      20.53166084       0.27803638      -0.08256002      -0.43093492
C        8.69636509      15.42742813      19.43677320       0.17916206      -0.54900077       2.20393068
O        7.92080706      14.76099660      20.14024665       0.19441187       0.27176346      -0.08991100
O        9.53957185      14.78146038      18.65158360       0.53458618       0.34065235      -0.39585743
C        9.47167037      13.36906919      18.45943420       1.12280028      -0.16536905      -0.37566643
C        8.26826462      17.50861234      18.00219331      -0.65285136      -0.13570515      -0.51180376
C        6.88746065      17.06379558      17.40158581      -0.03393387       0.82545725      -0.50050868
C        7.09743565      15.68082277      16.72747176      -0.34670580      -0.83988289       0.01881756
C        6.66541382      18.01863540      16.24541345      -0.95818653       0.10971945      -0.55467914
O        6.96437115      19.17876665      16.18272954      -0.60123838      -0.25765244      -0.74432100
O        6.10201908      17.38644738      15.10365400      -0.36915644      -1.13935982      -0.17754771
C        6.03020101      18.09056620      14.10252673       0.26140075       0.16030030      -1.16875458
C        5.78105929      17.27560316      18.42495752      -0.12213290      -0.36608986       0.50214482
C        4.49135062      16.57612661      18.69210257      -0.28122037      -0.20929143      -0.26879360
C        4.00993526      17.14769462      20.06646276      -0.23133184      -0.15698456      -0.46369808
C        3.46867305      16.90926577      17.64751679       0.49507687       0.00109467       0.26239126
O        3.40362239      16.54140409      16.49944486      -0.62844478      -0.89961456      -0.48234616
O        2.40771163      17.64959715      18.26371763       0.19596495       0.26236319       0.28858498
C        1.22335776      17.37144855      18.09287212       0.56526665      -0.24984968       1.12560264
C        4.61362413      15.08284528      18.76313622       0.67960463       0.28234801       0.11136668
C        4.06573174      14.25050313      19.83611766       0.08668363       0.19250025      -0.20475149
C        4.75288195      14.35456075      21.24888928      -0.02414084      -0.18545723      -0.91173011
C        2.57330495      14.52564553      20.07960865      -0.06212911      -0.46048616      -0.32901580
O        1.74652024      14.32485292      19.20821904       0.69246274      -0.14496382      -0.77456073
O        2.29663956      14.78154952      21.35985414      -1.29031306       0.76676325       0.52246911
C        0.96623007      15.19003258      21.64463291      -0.14480612      -0.44602063      -0.43780381
C        3.96426404      12.75527564      19.38695739      -0.56174698      -0.19839069       0.38117934
C        5.20781228      11.85427004      19.35126615      -0.78601407       0.26481267       0.80979386
C        6.40288078      12.23947916      18.50520055       0.68140492       0.14795688       0.80875185
C        4.60045529      10.55651951      18.75648181      -0.03403510       0.87659146      -0.43923013
O        3.62548265      10.34258473      18.06528460      -0.04078596       1.55706655       0.03203845
O        5.38998063       9.44668971      19.00088520      -0.29890073      -0.48915365      -1.28614847
C        4.77953093       8.24919372      18.69693177      -0.13055816      -0.25408213      -0.66257454
C        5.67104850      11.42285743      20.76080932      -0.00198868       0.58908951       0.02388245
H       12.18712087      17.36054655      20.71057446      -0.12437113      -0.15867499      -0.16544910
H       11.54847261      15.95232493      19.97208677       0.04495530      -0.04967708       0.14575058
H       10.17596664      18.59088062      19.68043434      -0.30807331      -0.02347748       0.10163058
H       10.71474977      17.50626154      18.49214556       0.01734946      -0.22650616       0.00136141
H        8.41088711      17.37506829      21.52555899       0.19649101       0.08405575      -0.05194237
H        6.97298742      16.97745798      20.53946550       0.08255362      -0.03599091       0.08422465
H        7.78898072      18.54981968      20.33651199       0.10968270       0.00037707       0.01216805
H        9.75966176      12.83112709      19.37345762       0.12308875       0.01316662      -0.05546185
H       10.20156939      13.15217858      17.70026715      -0.21240111      -0.30293940      -0.11880600
H        8.50750876      13.02095347      18.18275164       0.21330780      -0.12500463      -0.13906729
H        8.17354894      18.59991260      18.07253330      -0.30107668      -0.00282550      -0.07262947
H        9.08481192      17.34002596      17.25792151      -0.12080811       0.24891100      -0.09913261
H        7.51088078      14.94327141      17.40504853      -0.23342243      -0.00944624       0.00956066
H        6.11959464      15.29808326      16.38482241      -0.12687526       0.13905189      -0.08162715
H        7.72653549      15.75011155      15.84097411       0.06907356       0.03765141       0.05394860
H        5.54863049      17.72165817      13.14488659      -0.14639585       0.11192633      -0.06875147
H        6.41967645      19.09561932      14.30465608      -0.06152215       0.08506823       0.12528354
H        5.71188919      18.31661964      18.84450440      -0.02798281       0.05302221       0.06682975
H        4.67258656      16.96777998      20.88361869      -0.14692406      -0.12410496       0.13507988
H        3.96320573      18.20372760      19.94582009      -0.42483828       0.08573518       0.13325738
H        3.01261895      16.85481730      20.23066497      -0.02244187       0.13804747      -0.14053680
H        0.53038637      18.13315172      18.45148652       0.11091111       0.05144898      -0.09858682
H        0.89315745      16.40743977      17.65358599       0.04479022       0.04610112       0.22026058
H        5.21712681      14.59918526      18.03608833       0.02326560       0.00537227       0.07101748
H        4.29114419      13.63181063      21.85749556      -0.04925339       0.00189583      -0.20106045
H        4.52454155      15.27886600      21.70572965      -0.20208664      -0.02681616      -0.05756901
H        5.80471059      14.14045970      21.26416151       0.08529805      -0.28420140      -0.03390336
H        0.79716399      15.25000509      22.73426468       0.23469606      -0.11648380      -0.03613204
H        0.98193436      16.22405529      21.30527494       0.14874493      -0.09103796      -0.11453772
H        3.22108038      12.15076108      20.00908454       0.08588951      -0.07327720      -0.04767340
H        3.51594952      12.81337463      18.40064972       0.09966560      -0.08028536       0.03980202
H        6.69699855      13.21903736      18.91193100       0.20295971      -0.00832328      -0.00549513
H        5.95384444      12.63121834      17.53785627       0.18757259      -0.04520409      -0.04609941
H        5.42081014       7.59316401      19.25857400       0.00842503      -0.03457864       0.02921540
H        3.78541040       8.22264436      19.18078992      -0.17904717      -0.01415965      -0.12345155
H        6.28866886      12.12673944      21.27780218       0.06387860       0.09161690       0.01190605
H        6.32599468      10.56996435      20.57258873      -0.08924169      -0.04156788       0.12481180
H        4.85420753      11.07551055      21.40226105       0.00347329       0.12461662      -0.08368445
C       24.20396232      15.97050950      28.27456890      -0.60901695       0.17811904      -0.40515793
C       24.65076588      14.71738529      28.97931445      -0.21129412       0.79640709      -0.14216774
C       24.04115159      14.43415411      30.36066264       0.43642454       0.26867451      -0.15075685
C       24.05408754      15.67757955      31.33032123      -0.00627320       0.92474728       0.64754331
C       22.57577465      13.89539966      30.20229740      -0.49496838      -0.06947925      -0.44690565
O       21.92019820      13.50149574      31.12012776      -0.82018755      -1.15687589      -0.50375022
O       22.08517615      13.96973741      28.95410268      -0.09177135      -0.65827971       0.19409188
C       20.91074676      13.22921766      28.64687650       0.03224536      -0.57156271       0.04523464
C       24.85966368      13.46246046      31.35249687      -0.99255816       0.25598076      -0.74400328
C        0.11106692      12.04324275      30.94038999       1.28346135      -0.24172643       0.63218125
C        1.28309483      12.08703558      29.91370798       0.44329108      -0.86848337       0.54517403
C        0.45728159      11.30515014      32.24203165      -0.75629938       0.07000969      -0.16095056
O       24.85746017      11.06183284      33.09968905      -0.24523728      -0.66463598       0.79137237
O        1.75652027      10.99029507      32.23387415      -0.18982385       0.39928393       0.44108943
C        2.31226428      10.24899641      33.13394505       0.73398562       0.21347687      -0.44942681
C       24.00720507      11.27526256      30.44498560       0.07756916       0.10361038       0.36051943
C       24.15082504       9.81146548      29.80695318      -0.99319310       0.06707755       0.41388405
C       25.08725577       8.92818537      30.65967447      -0.86008974       0.96902600       0.17124176
C       22.69298792       9.36307922      29.84555098      -1.11953093       0.06030131      -0.63367700
O       21.74889138      10.07016829      29.49742593      -0.83494484       0.25873050       1.19873139
O       22.54505556       8.16311360      30.46365481      -0.85402899      -0.60254024       0.15177481
C       21.20802204       7.60364904      30.35095370      -0.95203419      -0.24669244       0.35234672
C       24.68140634       9.99181438      28.34756482      -0.52677369       0.41706617      -0.87680353
C       24.49055723       8.92574106      27.28581010      -0.82849040      -0.82046316       0.32852228
C       24.95364492       7.61257971      27.78816600      -0.47489935       0.51213230      -0.21600649
C       22.96347279       8.69079465      26.96980928       0.71821539       0.23304226      -0.60653912
O       22.46071158       7.60922412      26.97380933      -0.41230312      -1.24584205      -0.13138738
O       22.35473178       9.83176139      26.56255497      -0.61233677      -0.35038417       0.19793892
C       20.92831350       9.74334631      26.35184606      -0.56035180       0.01143673      -0.80346838
C        0.14468056       9.56559279      26.10480359      -0.22212939      -0.25302891      -0.40811906
C        0.56512353       8.74484833      24.81299888      -0.09739952       0.48635569       0.50098783
C        1.50794754       7.54863648      25.08642673       0.31054383       0.75192980      -0.39839370
C        1.48427131       9.80275898      24.15417307      -0.56298915      -0.32124945       0.90184468
O        2.67005320       9.68980660      24.09930595       0.53891771      -0.10194794       1.54890078
O        0.81581650      10.89126946      23.70995203       0.02677550      -0.63864510      -0.36526835
C        1.70009284      11.80741942      23.10587116      -0.46591995       0.24426897       0.44717501
C       24.43842090       8.42180907      24.09433100       0.39222460       0.02290898      -0.01495262
H       24.63573528      15.92216825      27.30678064       0.04824507       0.10981584       0.12883677
H       24.40642978      16.94363109      28.73026296       0.03943315       0.15144585      -0.05471206
H       23.12822143      15.98926564      28.13589707      -0.02828586      -0.12597539       0.02289317
H        0.56438612      14.72979507      28.97152745      -0.07365204       0.01644147       0.13212890
H       24.56424879      13.86996754      28.26410163       0.01319822       0.09063371       0.04318586
H       23.53503980      16.48981315      30.82788753      -0.19350825      -0.17941651      -0.13083855
H       25.08679982      16.07390867      31.28180930       0.03045726      -0.04738753       0.11624081
H       20.74190963      13.45471708      27.61469531       0.10621922      -0.20132088      -0.08935809
H       20.07571856      13.48427159      29.27231951      -0.00360668      -0.11019308      -0.00052504
H       21.02427399      12.12821048      28.72392614       0.14953559      -0.09157640      -0.10676607
H       24.14794123      13.42322550      32.12861021       0.14638318      -0.11543297      -0.10131969
H        0.62889153      13.93883251      31.64781874       0.00785073       0.04072435       0.28949774
H        1.84516038      12.98977961      30.05374125      -0.16109031       0.20319417       0.02335111
H        0.95473572      12.15983451      28.86680228      -0.00701242      -0.15795286      -0.37472342
H        1.96472346      11.28473061      30.06119077       0.03347098       0.05558448      -0.00021685
H        3.41007099      10.12740288      33.05862891      -0.17682191       0.16866838      -0.10395776
H        1.73946706       9.83173887      33.98578527       0.05966425      -0.19469322      -0.04140011
H       23.57536472      11.87618785      29.68479749       0.09278219       0.07837939      -0.03937782
H       23.31156205      11.24440918      31.25728280       0.16164709      -0.01622864       0.15885867
H        0.13245294       7.89076061      30.36961999      -0.07352603       0.14898191      -0.25328146
H        0.99821170       9.29070031      30.51765617       0.10117997       0.02969446      -0.08660372
H       24.76278019       8.77995457      31.74254970      -0.02143710       0.24252564      -0.27096711
H       21.34576802       6.63134536      30.85628655       0.02438176      -0.14638572      -0.16240644
H       20.47306195       8.14845851      30.87446851      -0.00651670       0.08443345      -0.06884183
H       20.95273093       7.39077842      29.30777202       0.03359808       0.11375598      -0.06430975
H        0.59195214      10.24486691      28.34950201       0.01168051       0.09511191      -0.16381006
H       24.15593466      10.75817362      27.86291707       0.24092694      -0.22112946       0.07953019
H        0.90001336       7.73358032      28.04659499       0.06343170      -0.26530312      -0.21520862
H       24.87229817       6.90662580      26.95497375       0.05441588      -0.05895748      -0.08324150
H       24.32880481       7.30044521      28.65361821      -0.05389736       0.16579900      -0.05375475
H       20.67836580       8.79279757      25.86531141       0.15194029      -0.00330004       0.08263725
H       20.72594589      10.68486779      25.88393122       0.00676515      -0.11547731       0.27184922
H        1.07753005       9.85135568      26.54230822      -0.17279876      -0.22115048       0.04678573
H       24.71489087      10.46188539      25.71678175      -0.01473724       0.06458345      -0.10421903
H        2.27099988       7.37828041      24.33210307      -0.34946766       0.10494895      -0.16475100
H        0.82038694       6.74775691      25.17568661      -0.06317181      -0.24993725      -0.15378917
H        2.04473970       7.69814906      26.00737538      -0.24585842      -0.17457390      -0.00158401
H        2.40340787      11.29297729      22.44275533      -0.05964081       0.13514322      -0.04455807
H        2.31017363      12.43572746      23.80996018       0.11689403       0.06448944       0.07817041
H        1.07851408      12.49551933      22.54450097       0.01225814       0.09037229       0.20270090
H       23.91083486       9.30534499      23.77498845      -0.18402504      -0.17045863      -0.14292798
H       24.04709973       7.42536161      23.98779086       0.14463197      -0.02624150       0.24907862
C       18.23615196      13.05293517      66.01262428      -0.89271734      -1.07770789      -0.46380098
C       17.41666438      12.13350871      65.29981120       0.07111843       0.48686315       0.33688530
C       17.91394773      11.54952859      63.91603208      -0.46529622       0.84106008      -0.00663088
C       16.84455169      10.63892928      63.31146489       0.94687713      -0.30255083      -0.43713342
C       18.07058995      12.60565907      62.91016104      -0.18441842      -0.02871977      -0.24802002
O       17.48384211      13.65940894      62.81393182      -1.12963109      -0.02972905       0.94046140
O       18.98822552      12.19416972      61.94531387      -0.34713251      -0.71659616      -0.89381906
C       18.88885879      12.76505524      60.66298889      -0.59618914      -0.06575814      -0.72733511
C       19.32107354      10.83103448      64.04866573      -0.31441532       0.44384208      -0.32026131
C       19.56400238       9.57975344      65.01548181      -0.09411455      -0.02978007      -0.50372294
C       18.52061385       8.56529298      64.67686367       0.22304586      -0.74332528       0.12119374
C       20.93619710       9.09107134      64.47258566       0.34776334      -0.12620468      -0.98765335
O       21.69736394       9.90109206      63.92930209      -0.99655415      -0.40356994      -0.59281563
O       21.31505523       7.85916165      64.61996212       0.35200640       0.50964308       1.38804508
C       22.50452129       7.57584918      63.90989592       0.26914731       0.76112882      -0.33400071
C       19.65357609      10.02637707      66.54984215      -0.20423320      -0.90864162      -0.45684803
C       19.87298132       8.93378508      67.61010975      -0.32579740       1.76945896      -0.54377953
C       18.79570813       7.80988274      67.65190774       0.24130727      -0.23298317       0.77025987
C       21.25327911       8.34499159      67.35160961      -0.31878837       0.00632497      -0.25631487
O       22.24938855       9.06186795      67.17533015      -0.35165031       0.66742082       0.78977904
O       21.39525705       7.01697086      67.35759228      -0.17725330       0.71029512       0.12569881
C       22.64464665       6.45462004      66.90816755       0.10238974       0.00984745       0.62305388
C       20.11995397       9.79694947      68.93834801       0.37277086      -0.68202356      -1.46842631
C       18.94000697       9.71146441      70.08383962       0.08862581       0.43588551      -0.35490669
C       18.74469577       8.43026071      70.72444595       0.50030518       0.09487020      -0.38187498
C       17.71761105      10.44100828      69.63644130      -0.63859549      -0.66226584       0.58832619
O       17.62997964      11.38834972      68.87426636       0.86845741      -0.57584617      -0.70303669
O       16.56765642       9.87641795      70.07178968      -0.91302141       0.43239120      -0.83332652
C       15.36706936      10.63670982      69.70259336       0.48067744      -0.19716758      -0.13173775
C       19.50899773      10.70976882      71.15285765      -0.03836954       0.72840040       0.00862394
C       18.77449805      11.07868287      72.41069353       0.52789940       0.28926994      -0.58319578
C       17.52229057      10.41690874      72.84785612       0.66520819       0.28319267       0.48662324
C       19.07731933      12.45346149      72.96850689      -0.60411766       0.73350481       0.07422519
O       18.56256242      12.88701319      73.98673148      -1.25261669       0.22424988      -1.00456116
O       19.99053032      13.22160781      72.22764060       0.39477302       1.28279582       1.02429027
C       20.32629028      14.29189569      72.99744640      -0.25682649      -1.07785228       0.49831180
C       20.13593982      10.17882476      72.37053949      -0.45085297      -0.13922948      -0.48454799
H       19.26432445      12.89633716      66.21761804      -0.10024283      -0.00729462       0.01903727
H       17.80249755      13.83714640      66.60990262      -0.02996453      -0.07769203      -0.02088226
H       17.33966866      11.15577240      65.79766608       0.30091173       0.15680421      -0.00975900
H       16.41219944      12.48926585      65.03288386      -0.09349762       0.04115937       0.33713106
H       16.01895200      11.27584833      63.09883468       0.15102778       0.01184602      -0.08659793
H       16.56873148       9.90191868      64.06413832      -0.22401634       0.01038538      -0.08055109
H       17.07640709      10.17288326      62.35959834       0.08962797       0.07232232      -0.04886433
H       19.78703972      13.47833894      60.64917247       0.01038054      -0.07118178      -0.11914833
H       19.02596226      11.93793266      59.97505013       0.18663370      -0.06700716       0.23111790
H       20.10835830      11.53457656      64.28063645       0.02485924       0.17620787      -0.16279605
H       19.59982057      10.37023777      63.10702515      -0.01408780       0.19463356      -0.09235239
H       17.60400903       8.93814062      65.13585302       0.09227039       0.09653295       0.01235507
H       18.37601033       8.65873884      63.60482124       0.04642880      -0.14770818       0.04550238
H       23.34744981       7.94362304      64.52489562       0.12911047      -0.09018994      -0.18473513
H       22.58008901       6.48360864      63.93317297       0.08731607       0.07488905      -0.01455066
H       18.79480504      10.57356249      66.84249621       0.11428874       0.06479276       0.02680064
H       20.47637175      10.75397638      66.64670504      -0.20721627       0.07668024      -0.02667504
H       17.77529430       8.16906243      67.73872180       0.02762853       0.08149735      -0.27849134
H       18.89929819       7.16073933      66.80575134       0.10977175      -0.05934220       0.04235209
H       19.18133130       7.26943388      68.52986405       0.06252386       0.06369905      -0.05328090
H       23.35869002       6.41376795      67.77308543       0.09719670       0.26350163       0.20622531
H       22.31706275       5.42480242      66.84815028       0.27247619       0.08626969       0.28767435
H       20.29242043      10.81635455      68.67305567       0.06787141      -0.05785151      -0.11124155
H       20.99666868       9.46107682      69.51237548      -0.13540424      -0.09460943       0.01741977
H       19.75123134       8.05193688      70.86884406      -0.11462647      -0.06259014       0.01355976
H       18.19951916       7.79562230      70.06379604      -0.02911410      -0.06401876      -0.16015213
H       15.24177239      10.69030268      68.62306700       0.08356312      -0.00337432       0.05966688
H       15.56153525      11.58912129      70.22661009       0.19110707      -0.18759096       0.02198384
H       14.46251784      10.23491464      70.20031264       0.13304932      -0.07313020      -0.08570034
H       19.94501527      11.63203065      70.87004774      -0.09192899      -0.06298019       0.32145248
H       16.74828516      10.72044830      73.54922228       0.29627878       0.19510276       0.22442325
H       17.31273268       9.40719709      72.32813197       0.22863927       0.25497271       0.10053756
H       21.06128430      14.79627387      72.37000271      -0.22525885       0.06569792       0.01715252
H       20.75006281      13.92048052      73.90550115       0.18296504       0.33288717       0.26370984
H       21.02387864      10.68066876      72.73131522      -0.15223536       0.12850943       0.10527678
H       19.89653153       9.27588725      72.87724529       0.27068083       0.17776005      -0.03753003
C        3.61217103      14.31741057      48.67826012       0.56753961      -0.35120325       0.36483971
C        3.38443525      15.53944352      49.01931240       0.16699217      -1.45599165       0.76717869
C        4.00730649      16.70102526      48.17971226       0.76581981      -0.56234279       1.56216545
C        3.63915478      16.48694782      46.65145793      -0.21378433      -1.10273262       0.37354856
C        3.27262998      17.96765570      48.51954354      -0.39313940       0.00635487      -0.31465197
O        2.63008391      18.12042050      49.49470475       0.01400828       0.09593507      -0.29614595
O        3.27148629      18.91194057      47.48388343       0.56117575      -1.45625948      -0.02267779
C        2.57338053      19.97506497      47.50711372       1.17981519      -0.73821374      -0.11268606
C        5.47857229      16.66223998      48.34441301      -0.33975732      -0.45082443       0.46502059
C        6.37983041      17.30801082      49.32747850      -0.13799461      -0.54858719      -0.61071889
C        5.69547675      17.33147639      50.72228585      -0.33763543      -0.11865087       1.03144058
C        7.66893731      16.41595698      49.48768892      -0.03950256       0.51410568      -0.05762480
O        7.97238208      15.99435219      50.60780554      -0.65314351       0.52226831      -0.00772776
O        8.25823046      16.05789481      48.39787067       0.37739956       0.06556356      -0.03213401
C        9.40597987      15.27618187      48.63073473       0.23270740      -0.04055265      -0.39583350
C        6.86178597      18.57598929      48.65999776       0.12700753       0.37914158       0.10771809
C        7.35786448      19.72311117      49.46060116      -0.11913196       1.19772525      -0.23566413
C        8.62949947      19.39687942      50.20544144       0.26654028      -0.16548225      -0.31352391
C        6.30165955      20.32958776      50.37040379       0.54477465       0.83916572      -0.13469320
O        6.50689740      20.86625812      51.43057614      -0.16306596      -1.11936877      -0.12531199
O        5.07587785      19.98117957      50.00084028       0.76707253      -0.13772536       0.34675148
C        4.10278885      20.44052681      50.95881235       0.08066232      -0.31309239      -0.19389072
C        7.77176834      20.76750431      48.47669550       0.18865508       0.31678456      -0.04392852
C        7.01934169      21.65761827      47.55746254      -0.02620666       0.15092646       1.11577571
C        5.76973058      20.98905880      46.98271951       0.27417585       0.69257443      -0.13991443
C        7.86416036      22.13256069      46.37974640       0.45285336       0.38746806       0.04411720
O        8.94431237      22.63820753      46.54504869       0.79274909       0.10342214       0.23742338
O        7.34303860      21.92554361      45.17120568       0.11420255       0.47859331      -0.10439195
C        8.06272269      22.31829290      44.00834755      -0.62523115       0.12571055      -0.60679614
C        6.74521640      22.89265448      48.40720028       0.17170344      -0.35060685      -0.25249612
C        5.85564482      24.00426917      47.97447776       0.08949390      -0.62836415       0.24677159
C        6.13101375       0.12832446      48.78815391      -0.69402926       0.61604741       0.69749687
C        4.38986166      23.62118804      48.37794218      -0.84680234       0.20911641       0.68464706
O        4.07586299      22.93128309      49.32539748      -0.51140522       0.36514218      -0.47245200
O        3.47876869      24.18408078      47.62569333      -0.12213994      -0.71556435       1.15644912
C        2.15856585      24.23135292      48.17111411       0.48473046      -0.07311232       0.64423201
C        5.88657408      24.43507324      46.49467831      -0.43572858      -0.98602245      -0.60621457
H        3.00249147      13.51418478      49.20903470       0.05114881       0.10984831       0.01770525
H        4.20706581      13.91835043      47.94388174      -0.07603311      -0.17562948      -0.23147908
H        2.72863063      15.78237865      49.90244260       0.11452654       0.27661429      -0.19758196
H        2.59575657      16.45809263      46.58880615      -0.11073896      -0.11809016       0.06224486
H        4.18334209      15.63525949      46.31630286       0.09029677       0.03249683       0.12731762
H        4.01159310      17.33278450      46.13174163      -0.03280718       0.00648454       0.05785323
H        2.62295673      20.40734656      46.51108153       0.15259602      -0.14461156       0.00616273
H        1.92377769      20.32256717      48.32814239       0.27723337       0.19194185      -0.31335721
H        6.34546744      17.97294502      51.32615129       0.00444769      -0.23709465       0.07686222
H        5.64246568      16.35190378      51.16285218       0.04696719      -0.04021025      -0.04860402
H        4.71149414      17.76719241      50.63201432      -0.05771144       0.00412498      -0.01879115
H        9.77093326      15.07440401      47.61657217      -0.00340611      -0.04413910       0.03256459
H       10.12669748      15.80538370      49.23872732      -0.03806929       0.04554489       0.09542485
H        9.10836037      14.41197264      49.15435985      -0.23279611       0.08996159       0.00953892
H        7.59210062      18.21529778      47.91115261      -0.27930723       0.02281525       0.04356815
H        9.36471023      18.88697401      49.54644586      -0.09304577       0.06755572      -0.24350880
H        8.41508224      18.74023952      51.02293725       0.02877659      -0.10167449      -0.12904939
H        9.21000125      20.25001496      50.60541662       0.12792738      -0.08256641       0.07357396
H        4.33873985      20.05261271      51.93386912      -0.28878383       0.12879766       0.18799975
H        4.03480434      21.54246201      50.99384474      -0.08557802      -0.09419764      -0.10635981
H        3.12641123      20.12271243      50.61872620       0.04626933       0.05781968      -0.01813282
H        8.62393781      21.39508611      48.79086405      -0.08558029       0.12679453       0.03518116
H        6.01783381      20.14874916      46.34354061       0.19667869       0.13463409       0.02206846
H        5.29375126      21.68735610      46.30767289       0.00907672       0.13255827      -0.00387308
H        5.11436601      20.60213443      47.74327179       0.03707041      -0.20600204      -0.15154879
H        8.82356249      21.56373462      43.89432881      -0.11681476      -0.08963130       0.00087161
H        7.22909248      22.25187373      43.27626089      -0.19331550       0.09742028       0.07694572
H        7.75988879      23.33155864      48.44069961      -0.15647332       0.14250424       0.11679388
H        6.36930627      22.59622452      49.43948117       0.09386878      -0.34234680      -0.12523372
H        5.37103916       0.87726815      48.64268247       0.25333060      -0.47153919       0.22259573
H        6.23155573      25.09703623      49.88472613      -0.08876556       0.19237176      -0.14690345
H        7.16515218       0.44332690      48.41176858       0.00930917      -0.16992845      -0.16663668
H        1.57158502      24.91658514      47.55518435       0.08388882       0.05141924       0.10900543
H        1.72520948      23.24999771      48.17273335       0.09782594      -0.09378307       0.06819505
H        2.14260424      24.50910008      49.21971214      -0.12038208      -0.00855891      -0.07541803
H        5.32632760      23.72630946      45.83845490       0.15815554      -0.04529339       0.29354009
H        6.86165433      24.49491495      46.07257700       0.07802982      -0.20127260      -0.09382583
H        5.40481745       0.26186653      46.35563301      -0.02460593       0.10314285      -0.12915989
C       17.84208796      17.74042737      65.22311802      -0.09693728       0.38664141      -0.35951036
C       18.70461143      16.80010168      66.02369666      -0.77567121      -0.43126604       0.13446157
C       20.13332545      16.68727449      65.61033114       0.25497891      -0.28230137      -0.07463559
C       20.19243946      16.39689435      64.13410326       0.23893393      -0.07257462      -0.58030844
C       20.78933306      18.02767201      65.79532881      -0.64137823       0.28098188       0.10613693
O       21.47841760      18.56406333      64.98802788      -0.17868578      -0.69072225      -0.50533098
O       20.70986829      18.47800545      67.07930352      -0.71652784       0.91881282      -0.13151151
C       21.44102305      19.53951658      67.44441470       0.30142381       0.78996311      -0.62419262
C       20.73784647      15.61084978      66.49554311       0.45364346      -0.04823477       0.26000619
C       22.14040754      15.30153204      66.86964677       0.33036783      -0.37647118      -0.10123830
C       23.07178250      15.74064682      65.77341003       0.03211485      -0.31371804      -0.59758036
C       22.14773937      13.79689870      67.13652706      -0.91946321      -0.20516620      -0.37038206
O       21.54955839      13.20567477      68.01142319      -0.82987975      -1.32710935       0.19707189
O       23.00623923      13.16093505      66.32911047       1.00542326       0.27213714      -0.14455638
C       23.22775548      11.87402379      66.33460358       0.25866908       0.41517451      -0.29759948
C       22.39783843      16.02622959      68.24209890      -0.23995912      -0.42667621      -0.20568572
C       23.74281345      15.71970982      69.00891628       0.09742307       0.07364776      -0.56742097
C       23.53614645      14.42039844      69.88807816      -0.33890837      -0.33245837       1.26347651
C       23.76058303      16.99781750      69.97924985      -0.70104544      -1.21275096       1.07876492
O       24.05991773      16.91895921      71.14845841      -0.78466528       0.24515309       0.10792828
O       23.49020841      18.16046061      69.40214726      -0.97257219       0.36449218       0.29100514
C       23.65798323      19.26420166      70.28292456       0.22280879       0.74659638       0.66501039
C       25.01411356      15.63722808      68.28721391       0.20618087       0.58777123       0.26310586
C        1.11634028      14.91329564      68.67909666      -0.00508154      -0.41871626       0.85716431
C        0.87924871      13.31068784      68.39431772       0.50479656      -0.51920454       0.90332667
C        2.19524649      15.52640341      67.73960603      -0.92084613       0.28137668      -0.13645723
O        2.53248500      15.05042345      66.70528144       0.17258040      -0.39643804      -0.25082854
O        2.60870104      16.70631210      68.21376934      -0.13324469      -0.09171855       1.07555460
C        3.57850420      17.31148579      67.33712316       0.24765128       0.35632533       0.33139671
C        1.60369290      15.08249637      70.12631596      -0.90364361      -0.34290326       0.66810016
C        3.45495671      14.79304933      71.95765945       0.63292173       0.30290046      -0.02361347
C        2.76204888      14.57555680      70.64347082       0.38618973       0.10580659      -1.50711986
C        2.60711051      15.47133760      72.91640816      -1.14200278       0.92200121      -0.37098894
O        1.94987053      15.15926509      73.93255298      -0.76713083       0.92018701      -0.59821139
O        2.80385896      16.82869903      72.71017324      -0.69834599      -1.08675463      -0.36955764
C        2.23192409      17.78693085      73.71857045      -0.26238421       0.42885894       1.20509703
C        4.68329715      14.32991080      72.11939114       0.52172398       1.27494718       0.05826100
H       17.41216834      17.24783252      64.38496660      -0.17061767       0.03434353      -0.02200269
H       18.39755329      18.65000952      64.95717839       0.29696898      -0.21486218       0.15458312
H       17.00653045      18.10257093      65.79125005      -0.09046552      -0.08886441      -0.22597181
H       18.23131112      15.83397252      65.92477790       0.06330241       0.14493960      -0.04369953
H       18.69760916      17.09809044      67.06328050       0.05397798       0.02775359      -0.13767172
H       19.63064576      15.50125627      63.85294353      -0.04820931      -0.09662030       0.09857705
H       19.76214767      17.26749344      63.60354311      -0.11621063      -0.11969539       0.12832160
H       21.21315789      16.33191920      63.80143556      -0.12059394      -0.10582421      -0.01851616
H       20.93819914      20.11816436      68.19928946       0.12938931       0.05670167       0.22221594
H       22.44257740      19.53342257      67.00433909       0.06061503       0.22030530      -0.13401268
H       20.07792259      14.79415081      66.72582052       0.27969471      -0.21151940      -0.02823476
H       22.72379817      15.22731295      64.86457121       0.03567962       0.06076015      -0.14002404
H       22.94936459      16.78003303      65.55951607      -0.19912545      -0.05129168       0.03453463
H       24.12817272      15.52388447      65.78946094      -0.06871747       0.06626606      -0.36553319
H       24.03851141      11.62784553      65.67675264       0.04353133       0.24702263       0.02421650
H       22.49454588      11.25332876      66.85515137       0.09273727       0.11813564       0.09927225
H       22.46605993      17.10112556      67.94739017       0.14829452       0.06003799       0.08822380
H       21.62338859      16.00488839      68.97307668      -0.17647265      -0.05172435       0.16799892
H       24.42737339      14.13001338      70.41576022       0.00023753      -0.29600216       0.02355055
H       22.70974096      14.57518336      70.57798612      -0.06678062       0.20620278       0.08693256
H       23.23838019      13.59389451      69.22927314      -0.48536853       0.02776352       0.25004739
H       23.33064048      20.00237380      69.64016176       0.06437197       0.09784847      -0.24523016
H        0.12205851      16.32680325      67.49685923       0.31221844      -0.19978340       0.05391707
H        0.52140933      13.25664996      67.38534535      -0.27967056       0.29593907       0.06305903
H        0.03544944      12.97460699      68.94854045       0.15428074       0.14350344       0.03815634
H        1.64193970      12.58168658      68.54387797       0.08036746      -0.07055835       0.07833559
H        3.83041914      18.25701613      67.77636864       0.07250109       0.07871453       0.12977401
H        4.40808676      16.64305089      67.54089212      -0.02596284      -0.00150911      -0.14356398
H        1.02943378      15.84516229      70.61309010      -0.31423847       0.22033814       0.45254630
H        3.26700481      13.87210446      69.79175878      -0.02545964       0.08109957       0.45258343
H        2.24840236      18.70968152      73.25700449       0.67273527       0.23390189       0.07360905
H        1.18791920      17.44831543      73.88672430      -0.21383949       0.16837934       0.12073822
H        5.23253490      13.80051575      71.32562364      -0.13689531       0.29164584      -0.14074779
H        5.40837028      14.50481621      72.88014125       0.23986579       0.01175995      -0.02172548
C       18.78375584       4.74977535      64.43324354      -0.24098318       0.96048941       0.21439873
C       17.41094338       4.33334870      64.48077924       0.49794209       0.55766656      -1.29448977
C       16.56418820       4.19265400      63.26768672       0.41919801       0.64042494       0.53312774
C       16.39474664       5.46808156      62.57702713      -1.03486219      -0.68283711       0.56065590
C       17.37736231       3.21753401      62.31656994      -0.46182893      -0.62122862       0.43907935
O       17.03662174       2.72314768      61.28179011      -0.80166329       0.29286085      -0.32544048
O       18.62033161       2.89291081      62.94757888      -0.65777204      -0.72549806      -0.60978947
C       19.61080459       2.43119314      62.39185143       0.14145899      -0.79501706       0.32845114
C       15.35109365       3.23965369      63.53411601      -0.25098342      -0.22402829       0.47796668
C       14.01393400       3.77491479      64.07255253      -0.09535387       0.29729451       0.58934672
C       13.14277356       4.43930053      63.04492375      -0.42821227       0.35371004      -0.88842312
C       14.35385488       4.73315595      65.18362871      -0.31495948       0.08551493       0.26090270
O       14.87248669       4.40614305      66.23373236      -0.29962498       0.47725268      -0.83848282
O       14.09558570       5.97142855      64.84078670      -0.50363300       1.37620302       0.79491340
C       14.55213932       6.94271489      65.73681809       0.18497330      -0.31309975      -0.53861831
C       13.43585508       2.46406470      64.64241958      -0.40321767       0.10743146      -0.08697860
C       11.95669078       2.28432803      65.07135222      -0.34438177       0.28122521      -0.50431611
C       11.03577581       2.24322078      63.85106158      -0.72119960      -0.68238226      -0.50249152
C       11.88209613       0.94309204      65.78520235      -0.47746718      -0.82193923      -1.10029088
O       11.23110120      25.09894395      65.48023398       0.28835787      -0.88857511       0.27920872
O       12.67200606       0.95796143      66.83066998      -0.15892955       0.09617150      -1.07048824
C       13.15356822      24.80353835      67.23968917       0.15782889       0.27334139       0.15926178
C       11.60685000       3.37926165      66.12057043       0.05692191       0.64870174       0.03512902
C       10.14382629       3.63733370      66.68459320      -0.22109949      -0.32537374      -0.17015142
C        9.47079279       2.34006218      66.88265379       0.28654955      -0.61807263       0.65706418
C       10.36963298       4.28391487      68.04645998       0.33979561      -0.87697048       0.18870965
O        9.86506521       4.07237815      69.11081938       0.87674163       0.40728487      -0.00482829
O       11.38627320       5.19270992      67.93673073       0.96129460       0.19242390      -0.07565432
C       11.64366840       6.06785021      69.09250862      -0.30900893       0.65756530       0.07341929
C        9.35672921       4.54885994      65.70398686       0.45331970      -0.30395170      -0.41127741
C        8.08468492       5.25586966      66.31626360      -0.05770131       0.17890275       0.39299959
C        7.09398568       4.27867716      66.99235506       0.08595670       0.00211978      -0.22980169
C        7.26548167       5.83485619      65.10750162       0.11264581      -0.71699664      -0.45915940
O        7.22743948       5.43529222      63.98012925       0.70975453      -0.08410389       0.44646834
O        6.55433918       6.94263966      65.48411250       0.69566177      -0.61996096       0.04681964
C        5.67965900       7.54882074      64.75520516       0.24811962      -0.02051081      -0.60708307
C        8.41786526       6.42550213      67.19911971      -0.90213339       0.08827393      -0.77767718
H       19.47589908       3.94055180      64.53007469      -0.30955370      -0.15489190       0.23386243
H       18.99021957       4.89143068      63.41019997      -0.13988309      -0.05911789      -0.09757908
H       19.10049584       5.46644566      65.16327903       0.05041845      -0.09531428       0.18415590
H       16.86587191       4.04206937      65.34568556       0.02826745      -0.19792396      -0.06032757
H       15.66429188       5.44338748      61.77004616       0.25111101      -0.08805026       0.11397198
H       16.90757496       6.39661741      62.86613861      -0.04907953       0.07164767       0.12062429
H       19.69753423       2.49391638      61.31013740       0.20925220       0.02378581       0.02527825
H       20.56014644       2.22578537      62.89600503      -0.17964012      -0.00029457      -0.03025750
H       15.70009627       2.53747721      64.28257067       0.09705327       0.04470693      -0.04964489
H       15.19373186       2.68037296      62.62085370      -0.15917057       0.00787529       0.06140561
H       12.84119614       3.70318843      62.28723381      -0.02204853       0.02460233      -0.03908234
H       13.72243001       5.23224947      62.57096144       0.05151916       0.03075300       0.00566375
H       12.24037516       4.77537191      63.51901463       0.04225829      -0.13980986       0.02123086
H       15.58515533       6.69258870      65.95374895       0.09348886      -0.02437743      -0.06785693
H       14.37950491       7.89726668      65.22099862       0.05091207       0.03147751       0.06237023
H       13.61632415       1.67195238      63.88058020      -0.11543860       0.12152294      -0.10914808
H       14.12506574       2.29983342      65.45081486       0.15666792       0.19931908      -0.18187446
H       10.79064237       3.26585712      63.61185000       0.07567187      -0.05350647      -0.18525672
H       10.08777719       1.72098449      64.02239389      -0.37670882      -0.04721588      -0.18615310
H       11.48080311       1.83820645      62.91683312      -0.03680360       0.02789633      -0.08745431
H       14.02791125      25.03267995      67.83347280      -0.09904084       0.13352227      -0.23557437
H       13.34887794      24.06748146      66.48187473      -0.24718398      -0.05157475       0.00666691
H       12.51949788      24.27622494      67.92938471      -0.02418928       0.04757982       0.17012551
H       12.25062739       3.16514788      66.98770407       0.03218857       0.09292800       0.07753208
H       11.97211859       4.33379327      65.73848648       0.05509608       0.02445048      -0.01851263
H        8.76548669       2.05488761      66.14918226      -0.24557628       0.01425398      -0.01268451
H        9.48682257       1.86407421      67.86005110      -0.10658227      -0.04245695       0.00375441
H       12.29524493       6.89094318      68.76490361       0.08568003      -0.07495119       0.08444418
H       12.07238634       5.50448616      69.91905958       0.04909155       0.16736745       0.05673665
H       10.70815305       6.53111877      69.44652241      -0.02366380      -0.34088505       0.29150954
H       10.01474281       5.37619469      65.46815181       0.08359161       0.06677226      -0.13208608
H        9.10024528       4.01972853      64.80376301      -0.11106703       0.26648722      -0.16942517
H        6.14256978       4.80386664      67.25325906      -0.02115947      -0.12530110       0.24685981
H        6.86852163       3.49289278      66.28987857      -0.25427078       0.10529424      -0.03808955
H        7.55675852       3.93536512      67.94900618      -0.14876546       0.03629012       0.10223553
H        5.25666329       8.46881155      65.16282452       0.02783669      -0.03560870      -0.17156912
H        5.43695432       7.10450766      63.80496065      -0.07000664      -0.06340641      -0.05163498
H        7.45610766       6.89818618      67.52987462      -0.07272939       0.06609980      -0.34277088
H        9.07578742       6.14359940      68.05940426      -0.20138401      -0.11455954       0.07716530
H        8.99106101       7.15083653      66.69785187       0.13583005       0.06766348      -0.02405283
C       12.64954409       6.50223861       0.92956107       0.14492404      -0.45289233      -0.43863319
C       11.77685930       5.33949262       1.38461177       0.21680471       0.00471959       0.55904452
C       10.26730393       5.57208785       1.06849933      -0.20481983       0.18652046       0.57078690
C        9.85724340       6.86296006       1.80946453      -0.08047264      -0.09367385      -0.12669695
C       10.12135878       5.91245045      74.63393116      -0.11383262      -0.29429386       0.43514802
O        9.37094993       6.66335843      74.13771548       0.50737513      -0.86600319      -0.44555084
O       11.04381758       5.18698076      73.96458695      -0.46106254      -0.30707482       0.61964642
C       11.05364088       5.32410907      72.53301168      -0.06193873       0.18413792       0.27618492
C        9.34156183       4.41366059       1.57493873       0.14799820      -0.88647456      -0.47996712
C        9.12026194       3.09808151       0.84113615      -0.22569042       1.33558545      -0.13556564
C       10.43885293       2.37828486       0.51754392      -0.51555125       0.13683607       0.01666518
C        8.30516217       3.45179815      74.61551005      -0.52232599       0.27146479      -0.44343551
O        7.26353858       4.11679816      74.60253895       0.77129495       0.87902117      -1.00879016
O        8.77386650       2.96317069      73.43917145       1.07003342       0.07129635      -0.14233778
C        8.28748212       3.35026118      72.27846251       0.36099042       0.88502218      -0.14812474
C        7.98137934       2.30428819       1.56710545       0.46598257       0.18298741       0.13412626
C        8.13427289       1.85203777       3.00993936      -0.54168452       0.44057630      -0.28481240
C        9.61227902       1.38758127       3.37033718       0.31272747      -0.34819610      -0.70944343
C        7.87256295       2.94905539       3.96568163       0.07470471       0.01217613      -0.98846882
O        8.09903556       2.86293621       5.13102454      -0.01734115       0.09808340       0.32365976
O        7.37406064       4.16439679       3.46212802       0.03702481       0.37670316       0.48797709
C        7.40847911       5.18192123       4.25141989       0.25709464       0.31985008       0.08071148
C        7.16323694       0.76407353       3.41368659      -0.12659365      -1.05925550       0.20267114
C        5.71436221       0.81770872       3.00658742       0.14903723       0.61600532      -0.55830766
C        5.01079789       2.09209680       3.40811980       0.07775288      -1.44453761      -0.70530827
C        5.48118147       0.49477836       1.52888153      -0.11955285       0.13011049      -0.39813616
O        6.14092621      24.91423673       0.84234642      -0.21270486      -0.27641667      -0.70038199
O        4.33363850       0.97003019       1.13831221      -0.87190968      -0.84545052       0.62624783
C        3.82947156       0.55735799      74.89484303      -0.23669653      -0.50654235       0.38298699
C        5.02127160      24.84790098       3.85796873      -0.17012132      -0.09206733       0.20001399
C        5.25949883      23.31103760       3.91709949      -0.95680247      -0.00815445      -0.61426821
C        6.73640631      22.92178522       3.78882582       0.01010717       0.76780370       0.07749930
C        4.35804471      22.53236582       2.93419356      -0.04484387       0.01930476      -0.07682243
O        4.16507252      21.33551586       3.03246396      -0.00593438      -0.43588138      -0.05550099
O        3.79668510      23.24960826       1.95714505      -1.51310128      -1.47676853       0.03180769
C        3.00995853      22.54655659       0.98631462      -0.64171438      -0.11872457      -0.28889095
C        4.78947545      22.90568465       5.35633652      -0.54966975      -0.56495932      -0.68229288
H       12.43270024       6.78798558      74.87227505      -0.13651613       0.01472446      -0.09119511
H       13.66538711       6.14611609       0.86331095       0.08466326      -0.13615067      -0.06309517
H       12.53746065       7.31209499       1.65873898       0.27308249       0.10495078       0.01586802
H       11.81397077       5.23002423       2.43752409       0.14445261      -0.01962657      -0.05377831
H       12.21794117       4.42854599       1.06771402      -0.10691798       0.33060751       0.05850262
H        8.80093747       6.97597515       1.70473926       0.12022678       0.06611233      -0.01595016
H       10.45156932       7.69777298       1.47183203       0.20704643      -0.12916220      -0.09048949
H       10.02684622       6.77232916       2.87581946      -0.11930138      -0.03334375      -0.03442217
H       10.12724068       5.03582123      72.04048069       0.04859553      -0.03283441      -0.06938676
H       11.36770816       6.35028100      72.33623491      -0.00895228       0.09710225       0.09973170
H       11.80879484       4.65051404      72.16736959      -0.11560191       0.13886410      -0.00465953
H        8.38504290       4.90409860       1.67705530       0.23927828       0.08893458      -0.08655997
H        9.67134704       4.19958305       2.57665305      -0.21867622       0.02984611       0.17543177
H       10.99438489       2.14614888       1.43924481       0.15213576      -0.06018630      -0.08504508
H       10.36218244       1.48371784      74.86535630       0.00842646       0.12418206       0.22518886
H       11.00891076       3.06143049      74.99971860      -0.45396181      -0.05293218      -0.16715691
H        8.52965237       2.65407064      71.48570235      -0.25102233      -0.01395781       0.10717695
H        7.93631078       4.34986484      72.13543498       0.16635700       0.04572312       0.13199765
H        7.08989651       2.95963835       1.48461301       0.05323568       0.19803802       0.22746269
H        7.72719653       1.47244549       0.93413222       0.04108010      -0.12717631       0.07419066
H        9.61478181       1.15785994       4.35070226       0.00436879       0.06657126      -0.06374538
H       10.34296377       2.17909656       3.22011690      -0.11503745      -0.08915435      -0.10876490
H        9.92031039       0.56676510       2.75724011       0.14597152       0.28488185      -0.08638392
H        8.13260417       5.12892491       5.04428174       0.09877725      -0.23859671      -0.16470032
H        6.75765702       6.04066739       4.09127954       0.21892656       0.15344385      -0.15473612
H        7.16646471       0.71666075       4.52353266       0.05222903       0.32125100       0.12387777
H        7.52731898      24.93534869       3.09162329       0.07341168      -0.10457480      -0.11014490
H        5.47529637       2.49789996       4.31541081      -0.04839862      -0.01533252      -0.09809337
H        5.06505995       2.84919103       2.59795349      -0.09474267      -0.19338032      -0.09481588
H        3.96721830       1.87994174       3.57366552      -0.04542148      -0.12484287      -0.15337616
H        2.75899149       0.90604789      74.99169535      -0.42749015       0.01432357       0.09139574
H        3.93736220      24.94414938       3.74071167      -0.06118822      -0.00734529       0.05322605
H        5.20705099       0.01719008       4.88450950      -0.10923441       0.18894174       0.13965823
H        6.87113915      22.88799751       2.72259517       0.20004731       0.17210012       0.08412417
H        6.81533825      21.81595727       4.00841818      -0.06057338       0.16379394       0.11381564
H        2.59093360      23.35122716       0.31337967       0.43416108      -0.08423045       0.13975836
H        2.30117721      22.01179244       1.53812227       0.10069882      -0.01784413       0.18983434
H        3.61906026      21.93189981       0.39233421       0.12349458      -0.03181522      -0.06390727
H        3.73279219      23.10357664       5.56878387      -0.03308660      -0.22051986      -0.23759611
H        5.41524496      23.49059234       6.04696141      -0.09683571      -0.06156179       0.05037350
H        4.95093164      21.85736353       5.57664302      -0.17162975       0.06357521       0.25923210
C       17.62682571       8.42034512      15.83232068       0.19618595      -0.50981363      -0.50788572
C       18.78549062       8.78609871      14.96328834       0.61712907       0.20173915      -0.41916663
C       19.79874218       9.83444813      15.10157492       0.74945447       1.32697042      -0.84917631
C       21.03425457       9.55583280      14.32340778      -0.62083758       0.09583729       0.81287276
C       18.72358883      10.19075957      14.05737792       0.43244684      -1.17868188      -0.23245243
O       18.89474783      10.14869993      12.85035374       0.02685257       0.10165425      -0.02042983
O       17.65898678      11.02697658      14.54511270      -0.11147334       0.14895711       0.73054496
C       16.99563638      11.74071517      13.54227999      -0.82387559       1.04800640      -0.41113227
C       19.93822213      10.42300433      16.41112452      -0.63225182      -0.10527211      -0.26682125
C       20.72752960      11.72993345      16.63096213      -0.40948352       0.00540234       0.04681835
C       20.89193920      12.42754727      15.37981677       0.92511212       0.08542050      -0.35504699
C       19.78077546      12.46575484      17.63504595       0.00031578       0.17719388      -0.32046935
O       19.88866565      12.32347247      18.81989243       0.72953113      -0.82515837       1.09537170
O       18.84850319      13.25959563      17.11739698       1.09577145      -0.09750068      -0.11555039
C       17.87919940      13.79722930      18.08376565       0.96817063       0.67588939       1.36170524
C       22.05996396      11.29886023      17.42084765       0.14853366       1.16152120       0.53355368
C       23.18534454      12.33900866      17.97882874      -0.07150885      -0.20001991       0.74303063
C       22.98126227      13.81721585      17.53404206      -0.26837065      -0.18133614      -0.61035542
C       24.52669475      11.82866132      17.38180029      -0.97755702       0.95779149      -0.30617346
O       24.75938808      10.77486414      16.93070807      -0.25363179      -0.26955609      -0.67808251
O        0.32619263      12.93699667      17.34964571      -0.31105667       0.07361387       0.56221749
C        1.41777460      12.75260509      16.69044665       0.63440838       0.87793617      -0.17044154
C       23.15244049      12.37852056      19.50577664       0.13229494      -0.12415861      -0.00720512
C       23.38237288      11.21275102      20.51624782      -0.46075696       0.01724176      -0.08283178
C       22.31393134      10.18199336      20.54760202       0.61504752      -0.08954917      -0.35381513
C       24.73722175      10.59876868      20.40957003       0.67169892      -0.83240377      -1.24412163
O        0.49737198      11.17455293      19.76657710      -0.92409796       0.19016127      -0.35586638
O       24.95394082       9.40968022      20.99004013      -0.09985564      -0.28606803      -0.47992494
C        1.09639746       8.86355004      20.87399038       1.02238079       0.54236353      -0.34890865
C       23.59747247      11.97321945      21.94834697       0.88032835       0.14903200       0.20629025
C       22.45019929      12.87333766      22.57632164       0.70743207      -0.69287587      -0.38985598
C       22.62271910      12.93020810      24.11403580       0.28872675      -0.25925979       0.44921024
C       22.60350633      14.30167664      22.13086585      -0.07812508       0.27702769      -0.63761139
O       23.39413719      15.04988605      22.61869433      -0.15381184       0.73577490       0.60768828
O       21.65991382      14.69769069      21.27662439      -0.26756445       0.88593607       0.90713600
C       21.72072877      16.12694590      20.97060851       0.14220200       0.01264720       0.41158810
C       21.00708121      12.46825800      22.33154148      -0.23759294       0.04405594      -0.69967040
H       16.79360197       8.92040499      15.39560650      -0.19878808      -0.02452269       0.13909733
H       17.56917585       7.34750321      15.95510089      -0.01269933       0.06756781       0.26670570
H       17.67374899       8.79214332      16.86682887       0.05618304       0.10612812      -0.08683139
H       18.97843225       8.01972109      14.24310420      -0.42148896       0.25917529       0.14498868
H       20.92420051       8.96776334      13.42316434       0.12132329      -0.07924835       0.09052458
H       21.72722870       8.99676372      14.95846580      -0.02351518       0.26471449      -0.12571745
H       21.48408623      10.52614610      14.07770367      -0.07174776      -0.10531061       0.03662924
H       17.72790749      12.14582587      12.81836970       0.02991322      -0.17843404      -0.20402859
H       16.43662360      12.53559783      14.07536282      -0.19086708       0.10764183      -0.19117153
H       16.27330626      11.09507533      13.04254150      -0.23890571      -0.00641472       0.30687950
H       18.89703231      10.59442245      16.72861508      -0.00944695      -0.00280371       0.04142515
H       20.34714243       9.65924605      17.09144331      -0.01655353      -0.06385213      -0.17558986
H       20.11277415      13.09417254      15.10210953      -0.12437506       0.01796728       0.05641996
H       21.79680276      12.15522477      14.85703423      -0.05014562       0.29723174      -0.04950444
H       17.26296184      12.97836221      18.43604981       0.02538952      -0.00042935       0.06787820
H       18.37075164      14.37914318      18.85514783      -0.02980635       0.01488236       0.30752320
H       17.21368200      14.41617398      17.51855836      -0.01052095      -0.08888631      -0.25856268
H       21.61183731      10.87755999      18.33436639      -0.06789162      -0.01358417       0.13125566
H       22.63008500      10.48078128      16.93331877      -0.02425761       0.15871299       0.03589013
H       22.12191543      14.26099178      18.00386612      -0.15562708      -0.17410957      -0.11471456
H       22.89657565      13.90397101      16.47251185      -0.12089053       0.02218519      -0.06957256
H       23.80969268      14.45869323      17.83140635      -0.18946432       0.11753091       0.23503987
H        1.97030912      13.68586221      16.48013017      -0.05530673       0.38460354       0.14915459
H        1.71015371      11.82562919      16.20060470      -0.15438158       0.01259551      -0.02291755
H       22.08385874      12.65763779      19.56529794      -0.14532911       0.06788104       0.14382134
H       23.82755930      13.21872496      19.77657077      -0.05548352      -0.09021935      -0.20944071
H       22.32232020       9.68322360      21.53808150       0.21420426       0.03213356       0.09097346
H       21.30994380      10.62096004      20.41745175       0.13881233      -0.09625417       0.22097851
H       22.44511735       9.41607229      19.77021155       0.06747823      -0.08558242      -0.16742007
H        1.33399750       8.41485033      19.89280889      -0.18740573      -0.05248253      -0.01707918
H        1.30092597       8.18499581      21.65913340       0.06340549       0.05820419       0.01360438
H        1.76558315       9.70815942      21.04131623      -0.07239941      -0.04689197      -0.06257773
H       23.72118518      11.14930104      22.61073345      -0.21623186       0.10610224       0.09639016
H       24.49511622      12.52166430      21.92858507       0.16778103      -0.14372641      -0.07505289
H       23.62318100      13.24705183      24.45010582       0.07528703      -0.07672942       0.03001028
H       22.45764331      11.94565885      24.52641926       0.11556325      -0.21220719       0.24775274
H       21.94042659      13.66094134      24.50973565       0.11310060       0.14259619       0.16058619
H       22.69401074      16.44899929      20.55977023       0.11518046      -0.20037122       0.12588758
H       20.96335680      16.36058149      20.24889922       0.06702301       0.14552024       0.07216323
H       21.50194002      16.70874528      21.85826163       0.16466578      -0.06472045       0.14228679
H       20.77707917      11.45291919      22.63652286      -0.03157852       0.05897120      -0.04435582
H       20.37005673      13.15674971      22.89918818       0.27999322       0.24530181       0.13012576
H       20.72687511      12.62146795      21.29742619      -0.00328984       0.01494189      -0.23175218
C        2.65001666       9.79106337      47.40227478       0.69615876       0.39693030       0.05600654
C        4.10971688       9.86089918      47.74016440      -0.15575679      -0.06233334       0.31188677
C        5.04871015      10.47504799      46.76707163       0.46466188       0.17995372      -0.11679237
C        4.49667826      11.09558135      45.52284006       0.04222985       0.20178747       0.27889282
C        5.05938566       8.93294260      46.99141698      -0.91508236      -0.49385765       1.07229729
O        4.66555980       8.17179818      46.13381061      -0.01284925      -0.49805683      -0.47820132
O        6.18161559       8.55802467      47.75601132      -0.03698823      -0.05582027      -0.16852040
C        6.38914923       7.17939330      47.65406463      -0.03428963      -1.66308052       0.33027228
C        6.17257066      11.24845392      47.35682730       0.29747911      -0.55647954       0.44388612
C        7.44555496      11.60925313      46.50420389       0.46631469       0.58561026      -0.82545845
C        8.36647460      12.24209767      47.59055883      -0.21264775       0.41143441      -0.67816569
C        7.16148901      12.74814523      45.51981877       0.26491697      -0.56071194      -0.21382689
O        7.30262422      12.75724918      44.33966618       0.68710251       0.61966466      -0.00146123
O        6.95349475      13.93842443      46.18990987      -0.63302181      -0.53348902      -0.76395872
C        7.13982733      15.00850497      45.31887782      -0.06640805      -0.12429955      -0.08390754
C        8.08061823      10.45579620      45.73811553      -1.54405627       0.02189843       0.09266360
C        9.55724426      10.53322018      45.35067102      -0.22079464       0.07561000      -0.68615698
C        9.84466766       9.43726912      44.32543174       0.01404438       0.88302937      -0.80447076
C        9.79146744      11.83952930      44.59819906      -0.85254234       0.76242345       0.30101741
O       10.10856739      12.90909926      45.08664835       1.02983019       0.70992525       1.06723710
O        9.68898346      11.65723812      43.28449658      -0.17108837       0.36833702       0.52148659
C        9.82048041      12.87083152      42.54300204       0.08359207       0.19947656      -0.28070525
C       10.52667048      10.51377256      46.54856281      -0.42526817      -0.00987696       0.16473792
C       10.52368231       9.32034455      47.67446734      -0.09503350       0.58735607      -0.28011068
C        9.17288848       8.80589986      47.79173270      -0.62981659      -0.38980124      -1.05069890
C       10.96242911      10.14113961      48.97584591      -0.57064465      -0.19396138       0.37976804
O       10.20244640      10.69584302      49.74909287      -0.24932778      -0.17959656       0.09672170
O       12.25850377      10.22518661      49.02067775       0.47903962       0.55416724       0.26368301
C       12.94043140      10.66229680      50.21521764      -0.56401592      -0.87322516      -0.64622652
C       11.67605453       8.37545996      47.12595659       0.00628343      -0.62824748       0.10778624
C       11.69759051       6.98823628      47.82327021       0.50479484       0.42173729      -0.44699363
C       11.86134836       7.08011184      49.28668192      -0.09666633      -0.12644866      -0.06791595
C       12.92075570       6.21312130      47.20745563      -0.12300262       0.69433872       0.15148671
O       13.10015564       6.06324778      46.06478295       0.28267108       0.45059220       1.27517340
O       13.72391503       5.69596655      48.12226422      -0.07304676       0.55704555      -0.10850276
C       14.85723174       4.97263585      47.69739477      -1.15473783      -1.01524981       1.23507675
C       10.53584444       6.05980253      47.39375801       0.95118713       0.16561525       0.67333359
H        2.11436073       9.03951935      47.96295827       0.04803958      -0.14512075      -0.24186029
H        2.20720939      10.79040893      47.55220129       0.12721678      -0.18838775       0.13194683
H        2.44115742       9.59123614      46.35603021      -0.23061280       0.34925078       0.01587135
H        4.47104259      10.07118154      48.72772665       0.11922722      -0.29840678       0.08723272
H        5.20698374      11.03211356      44.71714886       0.13886123      -0.23017081       0.14380266
H        3.61245043      10.57945974      45.10661740      -0.14601207      -0.02831647      -0.16953223
H        4.20905832      12.17053500      45.70834335       0.03620668       0.30410265      -0.11065813
H        7.09350599       6.86423077      48.44828309       0.02514558      -0.03006094       0.10452080
H        6.90193163       6.90022093      46.73372612      -0.02318718      -0.04141420       0.09800892
H        5.50449865       6.57736261      47.68043483       0.14087790      -0.06293778      -0.11772664
H        6.49115040      10.66168816      48.18966908      -0.07936567       0.08823659      -0.17428742
H        5.77833450      12.14543635      47.75872201       0.08888218       0.15725018      -0.01918995
H        8.77615582      11.58655322      48.39810596      -0.09889527      -0.03548331       0.20110714
H        9.23913922      12.70544295      47.18250341       0.14993682       0.02172616       0.44812229
H        7.71812030      12.99436747      48.03057812      -0.02683127      -0.17814756       0.21856717
H        6.50351553      15.76264093      45.72209504       0.00845316       0.44683100      -0.02896067
H        8.16028118      15.21871845      45.22662532      -0.03680268      -0.15059211      -0.09220690
H        8.02582618       9.56319593      46.32221318      -0.00471418      -0.01171379      -0.06250999
H        7.42743200      10.28368775      44.89705747       0.10948912       0.09664265      -0.17122481
H        9.70293173       8.53822560      44.90180183      -0.17904634       0.09770900      -0.06124862
H       10.95764113       9.38269694      44.22020840      -0.12860855      -0.08623112      -0.05048807
H        9.38924871      12.58683237      41.56284748       0.19908678      -0.03148793      -0.03000426
H       10.87112934      13.21665171      42.45676475      -0.04116707       0.02894061       0.06375543
H        9.31244124      13.63605619      43.08743398      -0.07402627      -0.04514847       0.02315817
H       10.43060634      11.47149250      47.08391637      -0.13271754      -0.08808346       0.21330489
H       11.52922762      10.38826797      46.12103980      -0.13921690      -0.07026572      -0.15114144
H        8.80541141       7.94906540      47.29880976      -0.04901691       0.06014827      -0.25933176
H        8.47834047       9.34952973      48.40107685      -0.26101701      -0.13116505       0.21573028
H       13.70922215      11.34176213      49.92137725       0.07881204      -0.01036224      -0.23544108
H       13.49095854       9.83179171      50.57626591       0.03434861      -0.07809702       0.17665552
H       12.59361245       8.95854206      47.24365423       0.08776860      -0.08250130      -0.34358739
H       11.55383264       8.20871934      46.07096840       0.07542833      -0.18135979      -0.04727141
H       12.20806171       6.16656962      49.68667180       0.01667492      -0.25457947      -0.13390841
H       10.92437947       7.27099756      49.76849690       0.04485724      -0.05393248      -0.14245960
H       12.62611472       7.86690560      49.48927100      -0.08261068       0.02295660      -0.05522282
H       14.90153149       4.46404648      48.67994193       0.46314567       0.03774078      -0.19002527
H       10.31206300       6.24635587      46.31982949       0.31331537      -0.02567577       0.05007491
H        9.60707925       6.21780162      47.88203406      -0.17025135      -0.18584501      -0.19892831
H       10.81641218       5.01778904      47.46840608       0.28199541       0.09622644       0.16186924
C       25.12348220       7.88679437      35.17333977      -0.28374779      -0.80749653       0.59740984
C       24.17572853       6.69386191      35.21368336       0.09288289      -0.32126259      -0.40363571
C       23.09423463       6.52791513      34.14320311      -0.09176186      -0.53494181      -0.32745740
C       22.21715151       5.28427165      34.42881675      -0.27382544       0.41620395       0.61231350
C       23.92475717       6.23898087      32.83691728      -0.65551234       0.37249229      -0.53658819
O       25.03840117       6.50917187      32.56182325       1.38750954       0.10474141      -0.76507579
O       23.05191195       5.63140311      31.93605056      -0.29799927       0.75562006       0.60271418
C       23.65625684       5.21697744      30.71710236       0.19146265       0.34410051      -0.41569555
C       22.26798202       7.75350368      33.78400922      -0.28279688      -0.09801520       0.34131916
C       21.12899677       8.22318915      34.75423293       0.07594250      -0.01202520      -0.22177851
C       21.61469579       8.38558314      36.27429070      -0.29847239      -0.73612824      -0.56624289
C       19.91683103       7.25264154      34.62059711      -0.16589261       0.63387498      -0.76736549
O       19.36967255       6.97707548      33.58182327      -0.52553653      -0.38980047       0.34107434
O       19.58465304       6.82205956      35.84924548      -0.14433413       0.35320496      -0.44697934
C       18.59038405       5.81613074      35.93937936       1.02951649      -0.20584914      -0.35734121
C       20.64370184       9.52912712      34.18222296      -0.20328044       0.27873263       0.55955903
C       19.53413370      10.38316133      34.67658297      -0.70470023      -0.23066040      -0.31081675
C       18.40698267       9.57062686      35.45741568       0.11546648       0.13071303      -0.02683764
C       20.21106415      11.26397004      35.73950257       0.40517311      -0.57034899      -0.13670752
O       19.97189794      11.15766855      36.94714551       0.37498971      -0.30589616       0.12038945
O       21.02100645      12.15088881      35.18068987       1.93150199       0.36751320      -0.16066655
C       21.76930370      12.98743199      36.08382367       0.39645422      -0.00321784       0.10432791
C       19.04962179      11.35099390      33.56062508       0.64487320       0.06005995       1.03818097
C       18.04942349      10.81261218      32.44412991       0.11518431      -0.38914166      -0.36967909
C       18.67784892       9.57346832      31.74410449       0.64050574      -0.97659842       0.33413201
C       16.63751101      10.41912172      32.91987220      -0.76105928       0.21865211      -0.47610512
O       16.10191689       9.40866402      32.58937508       0.13670714      -0.38331375       1.03012993
O       16.16801869      11.37311914      33.67264170      -0.14143659       0.43719395       0.45618377
C       14.79734004      11.20885815      33.97957220       0.10099837       0.25332784      -0.59605229
C       17.93431722      11.94964934      31.32398130       0.24956394       0.19221094       0.14182686
C       17.27412609      13.32526272      31.53790047      -0.06243092       1.07095737       0.05696063
C       17.72425643      14.11941948      30.29238189       0.38261852      -0.80336782       0.35265870
C       17.90927940      14.10565091      32.73798550       0.02527118      -0.20200950       0.35671141
O       17.27363831      14.58048944      33.65545901       0.04273989      -0.26477013      -0.05793005
O       19.23876367      14.15960223      32.66934941       0.28295754       0.31577924       0.47762458
C       19.97440442      14.98262986      33.62127451      -0.05948772       0.57446286       0.36164099
C       15.74029430      13.20032350      31.69552633       0.04598449      -0.56942999       0.37582911
H        0.68801315       7.80207011      36.10165504      -0.02992051       0.03623098      -0.04537792
H        0.67812722       7.83704863      34.35531328      -0.06522339      -0.01730949      -0.05755672
H       24.56031780       8.80529356      35.14643003      -0.10559155       0.42429716      -0.08219116
H       24.73909787       5.77814559      35.30542771       0.15087007      -0.25336785       0.05697626
H       23.74274465       6.70168308      36.17132588      -0.01335070       0.00991898      -0.00726929
H       21.80984565       5.44361246      35.39223118      -0.23867198       0.15533214      -0.25253033
H       21.42508368       5.16315414      33.70120197       0.04539459       0.14318166       0.04798987
H       22.81607217       4.36087353      34.45725528      -0.08041668       0.00378481      -0.04547985
H       23.76246885       4.13206844      30.95638820       0.07237269      -0.04373468      -0.06367754
H       22.79168809       5.22055905      30.05203243      -0.16672519      -0.01731362      -0.07467720
H       21.82368654       7.61536264      32.82346285       0.07840666      -0.19643153      -0.10516294
H       22.98203444       8.56701576      33.68189483       0.03910665       0.04746868       0.11147713
H       21.71807675       7.43716109      36.78700505      -0.02663507      -0.11607347       0.05304311
H       22.57291276       8.91375854      36.31695137       0.13457870      -0.18035058      -0.31944089
H       20.83746029       8.95800192      36.79061977      -0.01990326      -0.06933862       0.07748963
H       18.78749108       4.94644535      35.30855495       0.20990809       0.19031016      -0.19384857
H       18.60946774       5.53123984      36.94398641       0.14466608      -0.14729356      -0.22055046
H       17.65805564       6.27020554      35.67914771      -0.01689335       0.19220211       0.15916236
H       21.34171424      10.02209137      33.51205781       0.12261348      -0.16751447       0.03892278
H       17.58446934      10.22067013      35.75668245      -0.10077649      -0.15145472      -0.01291485
H       18.02151511       8.76578977      34.85048597      -0.17091462       0.06054344       0.02710651
H       18.92923654       9.12483315      36.27978572      -0.06338439      -0.06825240       0.01120306
H       21.09539211      13.36813119      36.85063615       0.08355509       0.15855684       0.01250408
H       22.64019494      12.47148683      36.50451279       0.16077697       0.10167417       0.05782410
H       22.03736064      13.86197916      35.50462354       0.04192017      -0.04683203      -0.03688720
H       18.55653031      12.16552813      34.07980335       0.03618069       0.02470363       0.14582412
H       19.88565856      11.76096547      33.03308846       0.11638236       0.02155164       0.13143837
H       18.26060255       9.47150871      30.76855374       0.12374600       0.17885245      -0.06121137
H       19.76420837       9.68613608      31.68273813       0.01308040      -0.06227194       0.01710550
H       18.54879002       8.69030854      32.36514482      -0.05298439      -0.16803024       0.10579796
H       14.26929143      10.77142323      33.13625978      -0.12304739       0.07306465       0.01079436
H       14.73055798      10.47831087      34.77008786      -0.09402113       0.18914311      -0.09600625
H       14.40520195      12.18328850      34.23211756       0.14884507      -0.03112108      -0.03540375
H       17.50799870      11.53102862      30.44309047       0.08397495       0.20371714      -0.08253776
H       18.98304838      12.16453952      31.03404004      -0.02064657      -0.13150905      -0.08901604
H       17.54125692      13.53718028      29.38120941      -0.05069256       0.05604127      -0.08319245
H       18.78886742      14.22548632      30.45207201       0.12193588      -0.05699484       0.11280736
H       17.22317622      15.06467566      30.06915159       0.09537498      -0.01021872       0.02938057
H       20.13071042      14.41422210      34.54183970       0.06339092       0.00792903       0.11665393
H       19.49544406      15.92445666      33.80962951      -0.03106720       0.16162052      -0.13752915
H       20.95920797      15.12362826      33.18527736       0.00615051      -0.03820713      -0.15900402
H       15.30742469      14.20303693      31.70787513      -0.14158550      -0.08306979       0.09528815
H       15.37938244      12.74207070      30.77541838       0.08170608      -0.11261210       0.04674582
C       19.04722848       8.21596570      61.12322571      -0.31379547       0.84768347      -0.25392437
C       20.54976138       7.67881780      61.19459927      -0.65029254      -0.04100875       1.00721779
C       20.75344589       6.37043229      60.30086314      -0.41048185       0.44741644       0.16089432
C       19.57563445       5.50136123      60.66282124      -0.19981525      -0.29750223      -0.06826798
C       21.98315682       5.66638498      60.83316481      -0.15631500       0.56728730      -0.58471653
O       21.88876530       4.72297570      61.60024887       0.10502565       0.69425589      -0.63919921
O       23.13594049       6.26825775      60.49330842       0.03286941      -0.56769759      -0.18865700
C       24.24097606       6.08764209      61.38773884      -0.79329613       0.10966090      -0.17925847
C       20.90576796       6.72901311      58.78508447      -0.63925584       0.12879719       0.02541158
C       20.88740885       5.65215501      57.73229436      -0.57263711      -0.89839865      -0.07041060
C       21.99781458       4.63082941      58.01917277      -0.79566264       0.53976552       0.50794529
C       19.57459655       4.89979899      57.75182460       0.16284767      -0.56808731       0.10766818
O       19.42351078       3.70327748      57.62571764       0.19114892      -0.40062699       0.02974000
O       18.53517002       5.72270502      57.87125508      -0.25962808       0.93104507       0.01086182
C       17.28140910       5.18189484      58.06137241      -0.58695151       0.55877471      -0.27071694
C       21.15247549       6.29262992      56.44394130      -0.75601658      -1.52869995      -0.56715942
C       20.29486976       7.11495654      55.49818735      -0.68198818       0.41286997      -0.42818912
C       19.48410414       6.19137335      54.61799625      -0.28523198       0.37415868      -0.73380298
C       19.33272998       8.10347058      56.14212764      -0.40321886      -0.09776585       0.50613194
O       18.11519749       8.03073533      55.98160628       0.26428322      -0.00997716       0.07644062
O       19.82565820       9.07832974      56.81341024      -0.52712787      -0.01609377       0.33144792
C       18.98312083      10.14792508      57.15718575      -0.30142638      -0.42127601      -0.23474502
C       21.35093739       7.93547730      54.72090646      -0.88431073      -0.43551096      -0.46766456
C       21.00591875       8.57265975      53.40086968      -0.05950429       0.30867952       0.78445619
C       21.44109436       7.60896008      52.22447664       0.26625468      -1.54853240       0.20717339
C       19.59453286       9.21179117      53.20736512       0.86322396       0.74682037      -0.70503832
O       19.08276541       9.94975912      53.98297201       0.78350800       0.52817919      -0.91737665
O       19.19485620       9.05642278      51.92989105      -0.28008603       0.04494247       0.97411833
C       18.13625115       9.89525421      51.44788705      -0.52032545       0.05793833       0.51012832
C       22.03407781       9.71771802      53.22234483      -1.20810438       0.00706436       0.00692647
C       22.72874832      10.55888762      54.26610040      -0.28410043       0.41804018       0.13944884
C       23.64145687      11.58511997      53.40672705      -0.31256197      -0.14496346      -1.03895808
C       23.74997406       9.61207360      55.01901223      -0.85655575       0.49877633       0.23344609
O       24.58939555       9.03727846      54.45481519      -0.80625128       0.74793179      -0.05429535
O       23.49143210       9.65930836      56.34596578      -0.73022782      -0.15202314      -0.25259171
C       24.18828808       8.61827720      57.04242674      -0.44787466      -0.48764825      -0.77575731
C       21.84336308      11.33298344      55.23171662       0.05182814       0.27077746      -0.58907067
H       19.03317014       9.26609107      61.38571151       0.04708210      -0.01946670      -0.04957057
H       18.34807967       7.59962914      61.68332927       0.03704558       0.10745722      -0.05968439
H       18.69776714       8.21894158      60.09411692       0.17692073       0.18408544       0.03547265
H       20.70005038       7.44987220      62.24877490      -0.31702853      -0.10057335       0.06245117
H       21.24851760       8.42717347      60.83107957      -0.02916354       0.10847435       0.13956182
H       19.57698668       4.50864715      60.21101965       0.04992796      -0.01213236      -0.05349958
H       19.51976714       5.33421358      61.73258581      -0.02945501       0.01133594      -0.00364875
H       18.62312037       5.94238779      60.37231510       0.20906295      -0.04304708      -0.19678139
H       24.12145645       5.18919303      62.04650677      -0.16243308       0.03074211       0.01215289
H       24.25787134       6.89416413      62.10533887      -0.26009296       0.06696780       0.01143086
H        0.03449968       5.95667421      60.85944315      -0.10881473       0.03004122      -0.27827941
H       21.83761890       7.31421819      58.76021604       0.19200767      -0.15198742      -0.03464219
H       22.92383095       5.12592137      57.90882581      -0.03503959      -0.09355686      -0.03048486
H       22.01579726       4.23036391      59.05695250       0.01020471       0.07766428       0.07360418
H       21.98071325       3.75097184      57.31819710       0.04729845       0.03119330       0.20753492
H       16.57456640       5.95051793      57.89042352      -0.08641241      -0.12544105      -0.08965882
H       17.21294656       4.30325526      58.68822739      -0.22098977      -0.01046588       0.33124516
H       22.14891952       6.69065155      56.51438627      -0.23239225      -0.08683975       0.18372123
H       18.78029011       5.58249753      55.16346478      -0.03844396       0.13110579       0.08292939
H       20.02515114       5.55501725      53.92100122      -0.08307445      -0.00206538      -0.16316431
H       18.80713532       6.76369687      53.97158996      -0.07380489       0.20408533      -0.13772705
H       19.49244394      10.79800203      57.89637981      -0.12547263       0.13229193      -0.35325471
H       18.90970669      10.81176394      56.31082799      -0.12577373       0.00050378      -0.18434013
H       18.01057016       9.85779100      57.53517333      -0.02545096      -0.05264958      -0.26031699
H       22.17462183       7.18725102      54.45819677       0.01272073      -0.09840454      -0.03611655
H       20.81930277       6.69339600      52.21745054       0.08181815      -0.11351234      -0.22380571
H       22.45730949       7.27559266      52.49636126       0.13531930      -0.06682353       0.03491288
H       21.33961540       8.07577205      51.24713715       0.13768447       0.30145329       0.14664977
H       17.15547152       9.69515594      51.92117501      -0.08136807      -0.00783517       0.03765138
H       18.01058439       9.63164629      50.39606452       0.21485782      -0.19380397       0.03198068
H       18.51266015      10.91150422      51.53549375       0.07737435      -0.11957152      -0.10638633
H       22.57890865       9.64934504      52.30171356       0.14068899       0.11913178       0.19577764
H       23.00305232      12.09826156      52.67042837       0.03852935       0.03847611       0.09399086
H       24.17601437      12.26475080      54.04156232       0.02324624      -0.14886538       0.05344901
H       24.33989065      10.91960718      52.88002922      -0.05204493       0.24028835      -0.18410962
H       23.76320115       8.48502264      58.04519565       0.18842473      -0.16830522      -0.07548738
H        0.17025598       8.73293188      57.13275051       0.19118667      -0.41872472      -0.02219891
H       24.09475507       7.75130980      56.42611329      -0.05117185       0.01046209      -0.04942383
H       21.40052313      10.68609298      56.00599235      -0.07389380      -0.13243982      -0.20049150
H       21.00351698      11.78706757      54.71224597      -0.02901337       0.04245149       0.23909295
H       22.39259293      12.09711855      55.74375054      -0.11448818      -0.09004677       0.15358622
C       18.37278860       0.74093798      38.19079471      -0.56335938       0.01012472      -0.71877249
C       17.92681701       1.17849425      39.57120359       0.26804653       0.34238729       0.30594308
C       17.60171398       2.69760139      39.59121795       0.03753929       0.29768061       0.52544531
C       16.72373358       3.05632852      38.47697902       0.50191866       0.10615502       0.76311443
C       16.82948759       2.99842476      40.89974153       0.56997580      -0.34822883      -0.77810975
O       16.52333470       4.05648708      41.35191073      -0.88746481       0.70436741       0.63232963
O       16.51889797       1.82931512      41.47178462      -0.94529741      -0.11204229       0.71851295
C       16.06028125       1.89659166      42.84521038       0.50270680      -0.26345236      -0.02787457
C       18.85804453       3.62250418      39.57343211       0.28734378       0.15921547       0.24796380
C       20.02856835       3.41845091      40.58634582       0.09104834      -0.58595670       0.32045190
C       20.81671939       2.13666924      40.25758560      -0.34936449       0.19776837      -0.54215143
C       20.87320668       4.63526361      40.15870459      -0.16297434       0.04908509      -0.10093829
O       20.61890216       5.78521566      40.51878185       0.91312970      -0.19791539      -0.07899413
O       21.79363493       4.35699622      39.25407468       0.71211033       0.84057385      -0.80551568
C       22.58904090       5.44642515      38.70614981      -0.59445879      -0.20359259       0.53574658
C       19.48410270       3.60476384      42.02639453       0.02961064      -0.59145828      -0.06977389
C       20.39548774       3.62603199      43.36806444       0.70828478      -0.46855544       0.69007097
C       20.32607038       2.16264634      43.87808197      -0.41803730       0.43453442       0.69502809
C       21.83231210       3.93620321      42.94947214       0.16118744      -0.61082564       0.15875445
O       22.62294926       3.08626465      42.66995451      -0.03659131       0.27444079       0.91834900
O       22.08233656       5.21734494      43.02102590      -0.28851597       0.32982651       0.53089734
C       23.50861701       5.51075336      42.77112151      -0.00090821      -0.72684030      -0.27418119
C       19.85827250       4.63255907      44.36789610       0.32108071      -0.16552118       1.17150893
C       20.25043714       4.72106274      45.78476708      -1.14599024      -0.39481075       0.20229237
C       21.69237391       4.35963844      45.98813467      -0.09851133       0.06861780      -0.36453493
C       19.38098301       3.66288294      46.52752230      -1.07450682       0.08822487       0.06766758
O       19.82492901       2.65618417      47.01356142       0.19868140       0.17879413       0.14430648
O       18.06694901       3.93809005      46.55050848      -0.17567401      -1.08159356      -0.26231056
C       17.32618103       3.00024201      47.34314671      -0.10687667      -0.45737488       0.09418013
C       20.01470045       6.18703888      46.12426670       0.02584171       0.09985004       0.36678448
C       20.40656616       6.63933078      47.56087985      -0.57089867       0.43410571      -0.11614283
C       19.55472616       5.84456010      48.46674680      -0.51207528       0.68494482       0.78923967
C       21.90615914       6.52631547      47.84572623      -0.06105657       0.00531222       0.23701064
O       22.78178124       6.92893518      47.05776493      -1.08119063      -0.09487241       0.64712143
O       22.22784678       6.03734363      49.05872224      -0.57498585      -0.09766393       0.13999375
C       23.58828862       5.79508995      49.37546630       0.63753966      -0.34067611      -1.00263040
C       20.10504994       8.14646882      47.70265701      -0.39153445       0.52344529      -0.78878901
H       19.27613195       1.33723267      37.98081458       0.13513082      -0.06833979       0.20448643
H       18.51687011      24.76604154      38.12608033      -0.15737214       0.16622039       0.11239427
H       17.55424961       0.98230509      37.51428547       0.15783188      -0.07990844       0.06115597
H       18.73098993       0.93453375      40.28917817       0.15669786       0.07142887       0.05352570
H       17.13989324       0.59167078      40.02598286       0.25273616      -0.00461359      -0.25028034
H       15.95143759       2.26974253      38.41856612       0.06999011      -0.20041249       0.03455071
H       16.16721166       3.93360986      38.75028106       0.17879325       0.11761227       0.08887224
H       15.77281377       0.82129117      42.87021330       0.00362753       0.27572754      -0.33953006
H       18.53160416       4.66334696      39.64922088       0.14607951       0.04676141       0.10615235
H       19.32569093       3.47069761      38.59771907       0.05246817       0.18336180      -0.05876751
H       21.85265129       2.24215808      40.55150465       0.00615096       0.08664938       0.11395185
H       20.78838621       1.85041963      39.16433552       0.20920259       0.02807172      -0.09931516
H       20.53493343       1.28264609      40.91828630       0.20839649       0.05335129       0.16316563
H       23.14875922       6.04290725      39.45418579      -0.05626964       0.00563878       0.09850849
H       21.95210608       6.05661432      38.05019919      -0.00521610      -0.07898362      -0.06060919
H       23.31823248       4.91778302      38.07607166       0.14810951      -0.05320959       0.20506486
H       18.99634484       4.55335160      42.07575111      -0.33045873      -0.09963057       0.04579717
H       18.67350411       2.88990548      42.14960296       0.01183479      -0.08566520      -0.01997425
H       20.46319089       1.50774371      43.04236228      -0.10613470       0.05239192      -0.08788793
H       19.32320082       1.93905887      44.32902945      -0.20235453      -0.13137702      -0.10536810
H       21.06629401       1.89014629      44.61548099       0.03784302      -0.17902926       0.09164241
H       23.64552360       6.54833478      43.06490944      -0.20388841      -0.04017680      -0.06566611
H       24.08938712       4.83577648      43.40304230       0.00305736      -0.21105628      -0.13848888
H       23.83631138       5.32397520      41.74358448       0.03899498       0.14906212      -0.06144294
H       19.21277830       5.36814663      43.94431503      -0.09643491      -0.35832577      -0.07565489
H       22.43005350       5.10937754      45.62992364       0.03909002       0.15040806      -0.24793783
H       21.97708657       3.36885935      45.60704235      -0.11078689       0.00000198      -0.13537326
H       21.94683266       4.29059780      47.04997241      -0.06706469      -0.17425116       0.15972329
H       17.73964331       2.99784765      48.31442378       0.14340222       0.20600408      -0.24584409
H       16.32178127       3.37647129      47.36520789      -0.06849080      -0.01829194      -0.00347163
H       17.24445257       1.99196962      47.01786388       0.03601768      -0.07662353       0.25532790
H       18.94440164       6.36936721      46.13137811       0.09089200      -0.06556172       0.07931764
H       20.46947254       6.81339061      45.39985412       0.01381997       0.00653886       0.13851500
H       18.51358914       6.08148799      48.25381741      -0.18048812      -0.08393017       0.03236399
H       19.78841684       6.16483130      49.50261972      -0.01573302      -0.00218452      -0.09757057
H       24.13402963       5.28223878      48.55503667      -0.14504933      -0.17856096      -0.12070894
H       24.12951720       6.71048307      49.63704841      -0.11438251      -0.07701303       0.00756580
H       23.65106955       5.12331024      50.21515894      -0.09238768       0.05273530       0.10325090
H       20.89288951       8.72872941      47.16565301      -0.11014334       0.01822041       0.05358842
H       20.07560058       8.43789950      48.76800900       0.09663139      -0.06099768      -0.09419826
H       19.21652323       8.45759433      47.17485625      -0.08822776       0.01474176      -0.00713177
C       10.45270679       5.24956315      60.99578745       0.06374327      -0.31703854       0.05578719
C       10.71992277       6.44006255      61.94950996       0.64814909      -0.19762535       0.68128173
C       11.13279225       7.66711887      61.13012344       0.50283047      -0.00158737      -0.21020811
C       12.00579953       7.34045827      59.86108703       0.60829994      -0.08989925       0.10340295
C       11.94307220       8.57707393      62.03983741      -0.30248704      -0.34356409       0.06369565
O       12.32442890       8.26343718      63.15180530      -0.62678108       0.90430144      -0.25347918
O       12.21474894       9.75229396      61.46491599      -0.54523454       1.26677578       0.63108832
C       13.08854846      10.60661574      62.23581549       0.09941661      -0.51933599       0.15631154
C        9.88313516       8.48296697      60.64158510      -0.08530130      -0.02067014       0.23185688
C        8.64986023       8.59852762      61.54649808       0.25020574      -0.04069579      -0.58178877
C        7.75046136       7.34945580      61.42651317       0.69299603       0.42246533      -0.92894523
C        7.69520452       9.63659308      60.86330499       0.29885001      -0.18091458       0.12167995
O        7.81185008      10.03770817      59.74763848       0.32485417       0.52355193       0.41366311
O        6.62156947       9.97949710      61.60562854       0.21785564       0.22880854       0.23147576
C        5.67971477      10.79718542      60.90974120       0.73905669      -0.05441048       0.05643620
C        8.88523787       8.81084839      63.06064724       0.22543822      -0.61703534      -0.40925205
C        9.08138261      10.06186788      63.81224076      -0.47738016       0.09431972      -0.65899809
C        9.38451632      11.28989967      62.92666508       0.18176801       0.52114444       0.48937988
C       10.31804533       9.79405611      64.75698720      -0.23118740      -0.71247114       0.71647094
O       11.29753704      10.49439525      64.87049197       0.42827532      -0.56352897       0.49128713
O       10.17627110       8.61818393      65.46747900       0.10696829      -0.61927332       0.95188892
C       11.30448832       8.22289359      66.26869507      -0.08892223      -0.76004356      -0.33263104
C        7.82432071      10.21138011      64.76483248      -0.37702234       0.42679218       0.25838974
C        7.83728754      11.04964161      66.09180789       0.48562202      -0.80483288      -0.58674888
C        8.54113931      12.40905998      66.02823267       0.31973423       0.16667697       0.08434513
C        6.29281883      11.27670162      66.34162329       0.44328551       0.18096687      -0.72988562
O        5.44259936      10.44730802      66.21454537      -0.29905405       0.94187551      -0.25851048
O        6.03971835      12.52191342      66.74516054      -0.08866551       1.41324148      -0.37076828
C        4.64508316      12.98908798      66.94246374       0.50872218       0.22314359      -0.75018570
C        8.30098680      10.21776315      67.23371736       0.17178661       0.41116198       0.50819170
C        9.03095009      10.48854806      68.47749540       0.00630734       0.08012196       0.39636865
C        9.28434847       9.07525134      69.09160098      -0.32708882       0.32812835      -0.56008787
C        8.10687398      11.37741479      69.38153837       0.47154099       0.48007996      -0.38245705
O        7.19818061      11.03522703      70.12327798       0.57591922       0.20986988       0.91370807
O        8.47254846      12.67912485      69.38716721      -0.72636150      -0.03056854      -0.35571164
C        7.68042127      13.48563169      70.22486506       0.37752914       0.41757683      -0.04758454
C       10.40502509      11.23736084      68.32198869      -0.74635497      -0.29980428       0.02250330
H       11.37632053       4.94756915      60.53636042       0.03990409       0.25099169       0.03805178
H       10.03982895       4.38414919      61.47383693      -0.04845961      -0.05083921      -0.10824340
H        9.74880213       5.43626704      60.17458909       0.02753582      -0.04458351       0.00255167
H        9.86193778       6.66662577      62.56640128       0.05845582       0.10261226       0.06439051
H       11.57385513       6.10684732      62.53462729       0.17277673       0.22098572       0.15599571
H       13.01641604       6.96791246      59.99888292       0.03968284      -0.09814558      -0.07904559
H       11.53640108       6.50784922      59.31408191      -0.02977459      -0.08231009       0.18410513
H       11.99616670       8.19148575      59.19056439      -0.06507429       0.04084990       0.11903185
H       14.09153532      10.19977858      62.21234923       0.04461282      -0.11409437      -0.03326437
H       12.76895649      10.70483577      63.26680571      -0.01155679      -0.06649948      -0.03583197
H       13.02274607      11.58879427      61.80625594       0.23554717      -0.06217271      -0.16438834
H       10.17974988       9.48222563      60.28703197       0.03993894      -0.08509590       0.20128043
H        9.55917711       8.08260001      59.66707113      -0.19226929      -0.12556267      -0.03294525
H        6.87990789       7.46091492      62.07406885      -0.01438687      -0.16310905      -0.27178438
H        7.36578967       7.17388192      60.42142914       0.00858985       0.07262911      -0.08981856
H        8.18719444       6.43150441      61.79586437      -0.07940557       0.00036808       0.00240973
H        6.12785809      11.59290888      60.31053277       0.03928765       0.00113117      -0.17448872
H        5.15365718      11.27029358      61.75212286       0.28662207      -0.02504854       0.08703797
H        4.98735413      10.25209083      60.28738068       0.18379471       0.06823888      -0.23737729
H        8.55454620       8.00126745      63.70258336       0.16150741      -0.20025680      -0.08705495
H       10.41595152      11.22591070      62.54764405       0.16838931       0.16332338      -0.06906962
H        8.72757194      11.33300780      62.06011429      -0.00250458      -0.03597359       0.09482033
H        9.18162747      12.20970789      63.47647197       0.07528582       0.16777775       0.09576197
H       11.06305518       7.17169394      66.35969572      -0.08419508      -0.09963938       0.19623594
H       12.13241980       8.35230822      65.61789095       0.09226551       0.15294633      -0.01988545
H        7.55080694       9.18923312      65.00048792      -0.17764123      -0.03799776      -0.20225140
H        7.04599943      10.65484052      64.13880810       0.07046168       0.03917260      -0.22757173
H        9.61319554      12.21224133      65.87205375      -0.04650696      -0.04027640       0.04330705
H        8.11366987      13.05981009      65.25698554       0.02483962       0.00734168      -0.07247202
H        8.40969798      12.96910153      66.93904370      -0.19149494       0.18549255       0.06446628
H        4.12845211      12.75539094      66.04276603       0.00059853      -0.10758880      -0.00662670
H        4.76353377      14.03314285      67.00514547       0.19828846      -0.06002973      -0.11313395
H        4.22619247      12.42586415      67.75688335       0.15273231       0.18954367       0.11222146
H        7.95384366       9.19089633      67.18329639      -0.21884362       0.11305624       0.02263396
H        9.47553509       9.18491268      70.15165166       0.26295242      -0.01712273      -0.11630846
H        8.29778531       8.62959566      69.05646781       0.16204459      -0.05852811      -0.08591756
H        8.07162508      14.49073588      70.25030311      -0.09521788       0.15425881       0.10882253
H        7.66077628      13.18450439      71.26943569       0.02828793       0.13784415       0.13409003
H        6.68192235      13.48415268      69.89207245       0.06857498      -0.21328905      -0.23350930
H       10.87754114      10.81564648      67.44187116       0.00173101       0.05508643      -0.12592417
H       10.33205286      12.32025536      68.22437014       0.05096543       0.01602081       0.08948413
H       11.09815818      11.15553493      69.16377482      -0.08113422       0.02713850      -0.04482402
C        6.87799591       2.77181272      13.00792805       0.53754605      -0.92203952      -0.03954474
C        7.93239509       3.45934877      13.89539094      -0.28358360       0.08761207      -0.29073417
C        7.74794334       4.99112675      14.11817449       0.04898714       0.51591788       0.16510635
C        6.38921141       5.38126258      14.65707245       0.11871861       0.48027574      -0.42021499
C        7.78619505       5.55792723      12.69117987       0.15727502      -0.11638978      -0.44505592
O        7.41213532       6.59818592      12.25784123      -0.05973618      -1.32222816      -1.31137698
O        8.14234240       4.54713632      11.87979464       0.94566170       0.17396703      -0.17214474
C        8.28829585       4.61168975      10.56815271       0.08214214       0.44759103       0.58346676
C        8.82213888       5.50454015      14.97478186       0.10606763      -0.92090363      -0.37793793
C       10.29840161       5.30121602      14.80174938      -0.30162233      -0.77050022       0.42326914
C       10.61173711       5.41448829      13.31501818       0.20548364      -0.85561536      -0.19975416
C       10.73112630       3.91335372      15.25977550       0.39272478      -0.81967885       0.17984537
O       11.57637620       3.24314704      14.73625322       0.37349064      -0.16385112      -0.44479225
O        9.98005926       3.49600815      16.33870566      -0.14285053      -0.60126772      -0.09061244
C       10.43317669       2.27322033      16.95067742      -0.02507898      -0.92131896       0.06817882
C       10.89606860       6.21511492      15.69448222      -1.44948694      -0.35613724      -0.61863175
C       11.28022914       6.79827596      16.98662888      -0.00655636       0.03124154      -0.33078914
C       12.16194251       5.70024886      17.82708319       0.10057008      -0.33926352      -0.06587231
C        9.92629747       6.90117939      17.67526239      -0.75902180      -0.39414271       0.31511377
O        9.61002587       6.09060962      18.51886392      -0.18445865       0.81993966      -0.21554613
O        9.15903974       7.88712587      17.17961659      -0.11692880      -0.80187568       0.23849611
C        7.73009850       7.87824394      17.51026928      -0.61946210      -0.70891729       0.13511104
C       11.93077907       8.18171372      16.82203753      -0.33987769      -0.64316543      -0.12447243
C       12.38112820       9.00464120      18.16208654      -0.49168700      -0.78700782      -0.29492676
C       12.95411327       8.15058599      19.31645108      -0.18518172      -0.25124030       0.13463621
C       11.09705874       9.69710155      18.63065092      -0.61242864      -0.19146219       0.13773685
O       10.61506557      10.68178131      18.10340792       0.90781109      -0.68468466       0.36300773
O       10.52302536       9.14045476      19.69642799       0.42620914       1.31664460      -0.58405639
C        9.35501057       9.73202974      20.15602961      -0.06533493      -0.24062379      -0.79864361
C       13.34625820      10.02702578      17.52208115      -0.06605371       0.01358940       0.03185866
C       14.44406746      10.67452862      18.36695730      -0.47294080      -0.22024124      -0.29467752
C       15.09613001      11.70978255      17.47228160      -0.48971681      -0.04841479       0.44020012
C       13.74914318      11.33909787      19.60240389      -0.02503649       0.00455295      -0.76488784
O       13.62567889      10.89507588      20.72582235       0.00842034       0.40508332       0.04228312
O       13.15164740      12.49423569      19.30081803      -0.96912702      -0.43397747       0.16283110
C       12.44217579      13.12837072      20.37308662      -0.37031456       0.30616344       0.59034981
C       15.53145775       9.65642923      18.80137661      -0.07944498       0.41448574      -0.36334349
H        6.58267805       1.76809353      13.38858926       0.22429243      -0.20208452       0.04224654
H        5.95417868       3.33141443      12.82772655      -0.06085567      -0.01981301       0.01507492
H        7.31593154       2.56981761      12.05184785      -0.16244664      -0.10294148      -0.11328521
H        7.98932220       3.01673876      14.90918334       0.27064189      -0.26349871       0.16652750
H        8.89402621       3.29469538      13.46281896       0.00603317      -0.06279721      -0.06148123
H        5.53320340       5.04123358      14.04063408       0.06050106      -0.02053999      -0.01447146
H        6.38052388       6.47171607      14.70375787      -0.02320272       0.02658813      -0.20299292
H        6.28588458       4.91582284      15.62040044       0.04460526       0.01744014      -0.10937731
H        8.86401951       3.73904524      10.34060695       0.02703588       0.08509027      -0.09013837
H        8.46245420       5.97221183      15.90418748      -0.09479103       0.16294567      -0.26257748
H       11.69805901       5.43963240      13.17587433       0.00956257      -0.12686307      -0.03052785
H       10.30147652       4.52523248      12.81724894       0.03362420       0.04749757      -0.10360655
H       10.16776892       6.29425939      12.88638310       0.01215590       0.01936260       0.01967438
H        9.98930170       1.44879318      16.42855731      -0.26328065      -0.11965046       0.31483161
H       11.51757401       2.19620134      16.88523038      -0.01565575      -0.19063663       0.25176268
H       10.15598291       2.31995776      18.00236652      -0.04289753       0.02926245       0.06282635
H       12.33647906       5.90259879      18.88636377      -0.02428766      -0.03793138      -0.06140482
H       13.11277236       5.51630169      17.32185450       0.02325756      -0.05587579      -0.01372183
H       11.65842868       4.71826000      17.85709048      -0.10480844       0.00207450       0.07311632
H        7.38203782       8.87121322      17.23573452       0.15648124      -0.29122714      -0.02590085
H        7.63597779       7.79259235      18.56650139       0.20176026      -0.18073815      -0.02278539
H        7.22233219       7.08286548      17.00642600       0.17083670       0.11849553       0.11327764
H       11.25570473       8.83248863      16.18785341       0.03460035       0.00538838      -0.06696645
H       12.84154893       7.98098217      16.29502302       0.10598468      -0.05468943      -0.08195772
H       13.73540183       7.46680739      19.05535934      -0.04435727      -0.00464371       0.10710198
H       13.39245723       8.77407337      20.07477784      -0.06146857      -0.08536698       0.05895543
H       12.13194805       7.64845372      19.73788040      -0.01231967       0.02371584       0.17153650
H        8.78705215       8.92556202      20.68094433       0.14325116      -0.19270553      -0.18538574
H        9.53259228      10.52473616      20.86641632      -0.07310191       0.08533791      -0.15329366
H        8.72076176      10.06220670      19.37551547      -0.17643350       0.03888028       0.07512890
H       13.89565812       9.49753938      16.69265873      -0.16140755       0.05372590      -0.05489132
H       12.66961858      10.75180104      17.11215955      -0.18703250      -0.10991943      -0.12700331
H       14.32681870      12.10978103      16.80090087      -0.17279856       0.04493703       0.01076138
H       15.69953734      11.14978084      16.80165369      -0.06508720       0.20012097       0.17655257
H       11.72548498      13.78703097      19.88961048       0.00840465       0.16519950       0.05076564
H       11.84945719      12.42913441      20.92821889      -0.01485485       0.17045098       0.11008398
H       13.18148289      13.64605019      20.97014531       0.08883009       0.09842132       0.04709931
H       15.41979481       9.59662276      19.89538392      -0.12616660       0.03520643      -0.10609495
H       16.46224815      10.25074096      18.77545415      -0.01551441       0.02140485      -0.11821386
C       15.19705843       2.72387924      35.67422939       0.78588992       0.44727923       1.36305387
C       15.78125028       1.83699228      34.97967318       0.21938258      -0.58124513       0.66663021
C       16.82914518       2.09766319      34.07613407      -0.82691630      -0.20618332      -0.18013692
C       18.06139990       1.67220560      34.93532514      -0.37279399       0.84662503       1.65601221
C       17.18175569       3.44160231      33.44760686       0.12780138       1.43472576      -0.65968367
O       18.23786489       3.68253118      32.85824359      -0.09883894      -0.24128233       0.84803169
O       16.21378271       4.31202781      33.41437739       2.35777902      -0.98680488       0.32759736
C       16.53868361       5.59828524      32.79094511       0.05521924       0.74781712      -0.13970072
C       16.77149125       1.05492487      32.84971026       0.06190754      -1.56783258      -0.51981366
C       15.44587023       0.73057522      32.22110396      -0.18028382       0.06303888      -1.17986149
C       14.61102949      24.84147451      32.92735397       0.93284620       0.49567467       0.59285947
C       14.66177837       2.00686422      31.95085485       0.19809635      -0.06291248      -0.79733760
O       15.16804241       2.95191317      31.48980138      -0.21340411       1.15066012       0.20052082
O       13.37425668       2.07531204      32.28270106       0.16379755       0.58636082       1.22739466
C       12.81294761       3.35149760      32.54101828      -0.00167312      -0.03585834       0.91109072
C       15.58905244       0.21770520      30.67129688      -0.27444470       0.82510992       0.63725840
C       16.45284635      24.20135297      30.15051546       0.09577903      -0.56550671       0.33364743
C       15.84147210      22.86281174      30.47999620       0.39207216      -0.14528633       0.30228721
C       17.84813615      24.19227381      30.77000781      -0.59781625      -0.04536767      -0.28742335
O       18.16637736      23.56639463      31.72461476      -0.69121916       0.11510248      -0.42076709
O       18.76210761      24.89952532      30.08301663       0.47468035       1.03023268       0.46897649
C       19.98606450      25.05592683      30.79222671      -0.22883355      -0.45287230      -0.22014601
C       16.59648088      24.33027966      28.56307811      -0.18753841      -0.43176837       0.25026743
C       15.27498553      24.71997739      27.69039490      -0.40410110      -0.96536568      -1.93811534
C       15.20584775       1.06869237      27.51158791       1.13131758      -0.12309887       0.15792284
C       13.93292587      24.29315132      28.31057485      -0.77610602      -0.19609219      -0.91370060
O       13.07843300      25.04839664      28.65343095       0.45786542       0.43975870       0.07796531
O       13.71132788      22.95822993      28.20488586      -0.02248207       0.72818763       1.08002285
C       12.60560512      22.31342275      28.80971179       0.12861666       0.03125108      -0.05699415
C       15.45165620      23.93479279      26.29526149      -0.36723496       0.12628518      -0.96497619
C       16.45072279      24.59664044      25.22847885       0.12980580       0.11214183      -0.65789453
C       15.91548264       0.72569101      24.41555309      -0.20195714       0.72208739      -0.03202000
C       17.86203429      25.03380898      25.76152069      -1.48371868      -1.50943809       0.86838161
O       18.24927722       1.00135954      25.69754869       0.80966669       0.30521767       0.30867112
O       18.57336727      23.93801118      26.25110881       0.15721320       0.23772204      -0.22829269
C       19.70026005      24.47846559      26.95964912      -0.00693909       0.57750955       0.50669368
C       16.75987000      23.47438070      24.24162825      -0.02754163       0.35231041      -0.31476398
H       14.53585621       2.63112532      36.48597533      -0.17510584       0.28516275       0.14205327
H       13.57335746      24.63668914      32.49960526      -0.88688159      -0.53747397      -0.32399024
H       15.73675477       3.72068726      35.63460007      -0.06471432      -0.36501094      -0.25823923
H       18.89064649       1.44138455      34.23430660      -0.05490785       0.22013982      -0.15913903
H       18.35878785       2.51757158      35.55100042      -0.32648664       0.24375828       0.12656880
H       17.90326481       0.77812326      35.56160094       0.12499598       0.02727048      -0.16773362
H       15.61516696       6.08174307      32.99497889      -0.07428901      -0.12284172      -0.14148382
H       17.38396974       5.97220008      33.34066123      -0.03960134      -0.21427468      -0.02180054
H       16.68813624       5.45035145      31.69557916       0.11056506       0.03298760       0.09151367
H       17.32348144       1.43055153      32.01767532       0.06236351      -0.29443226      -0.25498251
H       17.01745485       0.07452721      33.24367388       0.15470093       0.01580225      -0.07519859
H       15.13640362      23.89746598      33.07472573       0.32722912       0.11788731      -0.61430376
H       12.18062136       3.18709799      33.37430865       0.11916419      -0.11032259       0.31961707
H       13.56692546       4.03187819      32.88434681       0.10310674       0.02691491      -0.10650578
H       12.20973679       3.62974309      31.66038875      -0.10895130      -0.10917750      -0.06455316
H       14.58220165       0.15791037      30.31546800       0.08284754       0.07867781      -0.14236259
H       16.04261196       1.10667793      30.22119953       0.02956286       0.14311832      -0.05242334
H       16.28979339      22.16066472      29.75993465       0.05210550       0.09817982      -0.20133809
H       15.98103977      22.46009577      31.45643052       0.09791454       0.02394633      -0.27435137
H       14.78883409      22.97001534      30.26486504      -0.14344156       0.23820569      -0.01883677
H       20.56515784       0.43394412      30.09183267      -0.08909312       0.13005397      -0.29521041
H       19.91467047       0.42097502      31.70970225      -0.11454061      -0.02795198      -0.23451170
H       20.45883870      24.14217697      31.02244138       0.03183025      -0.11019746       0.05844795
H       17.10425419      23.46338253      28.17988086       0.01666303      -0.16158430       0.12352674
H       17.20964048       0.08829496      28.48796032      -0.02767055      -0.10723882      -0.06050319
H       14.98710839       1.39957540      28.51915454       0.03996570       0.11973540      -0.00279616
H       14.21357940       1.19469265      27.05647851       0.19532861       0.12651357      -0.12361677
H       12.64018398      21.30162345      28.38004516       0.02434458       0.01158448       0.15934594
H       12.69018222      22.25155391      29.87866871       0.28056285      -0.05897632       0.09041830
H       11.65431211      22.76234110      28.61757085       0.03790541       0.08011484       0.16188654
H       15.87907849      22.94069874      26.46009562       0.27256867       0.00899428      -0.02052654
H       14.44115645      23.91269182      25.91596657       0.05815385      -0.15559831      -0.19329097
H       16.33223851       0.88246933      23.43914002       0.03255252      -0.17970731       0.15845263
H       15.94746258       1.64328402      24.97893751       0.23119387       0.00790378       0.00965238
H       14.85167996       0.57166928      24.17376862      -0.04276488       0.20132029      -0.01257659
H       20.34600845      24.93061535      26.20668458      -0.19365195       0.15093746      -0.07629678
H       19.38114831       0.06313666      27.71407852      -0.04295175      -0.05997801       0.21741641
H       20.13584655      23.62764712      27.45058936       0.03227677       0.15882602       0.24538777
H       15.73747167      23.49877865      23.69512288       0.19010938       0.24961252       0.04508954
C        2.31628115      17.26362745      31.69333510       0.30035268       0.94671450       0.25843456
C        2.91734214      15.98286860      31.44040203       0.13565012       0.42389788       0.11280425
C        3.60497374      15.21012690      32.53148709       0.52824387      -0.11432713       0.41639751
C        4.26608416      13.96238643      32.15169381      -0.78818932      -1.03328427      -1.22055908
C        2.43178882      14.76659672      33.45403519      -0.30619469       0.63288137      -0.91445829
O        2.17762606      13.59463224      33.67882249      -0.35295951      -0.59579688       0.36412122
O        1.66123690      15.75672349      33.97044408       1.01273117       1.71797723      -0.02370326
C        0.53726466      15.13763290      34.72503064       0.04572374      -0.39573545      -0.33098000
C        4.58044159      16.06892573      33.42182658       0.34108285      -1.07864389       0.51747585
C        6.08006380      16.21007948      32.92352629       0.46330279      -0.34479536      -0.09472449
C        6.15364266      16.55204500      31.43808939       0.42207249       0.64387462       1.06273253
C        6.61196599      17.52656912      33.57035300       0.12850997      -0.11829942       0.46750309
O        7.65712583      18.07084047      33.32180183       0.15428261      -0.92709705       0.16347008
O        5.71939445      18.17976856      34.41912567      -1.04750631       0.04013457       0.10266645
C        6.11673225      19.19958281      35.02726010       0.85049717      -0.52833933       0.48412177
C        7.14788848      15.14809602      33.43288233       0.15305296       0.44598684       0.79337538
C        7.64567399      14.99466621      34.96535593       0.55287378       0.80763163      -0.01418333
C        6.44906618      14.73098126      35.82021828      -0.37013645       0.21778025      -0.99283936
C        8.32695025      16.32109075      35.43983735      -0.01418501       1.31584223      -0.17878978
O        7.71862706      17.11340301      36.11749287      -0.20569237       0.39975248      -0.08707194
O        9.59254763      16.45460428      34.99934453       0.04943491       0.02105641      -1.13822203
C       10.17457298      17.60341129      34.81892731      -0.05139261       0.36308198      -0.72954184
C        8.64243426      13.83498394      34.95339748       0.46769713       0.01266605      -0.05827855
C        9.47434662      13.36254769      36.04739152      -1.14980176       0.98539588       0.76286867
C        8.84688722      13.42315367      37.38529758       1.27964654      -0.10252276       0.11511675
C       10.65860545      14.22500200      36.17946802       0.22263220       0.39223100      -0.20332009
O       10.60737556      15.24058534      36.80094343      -0.38264359       0.19796214       0.16467305
O       11.62751167      13.78617422      35.36983089      -0.31464066       0.58742962       0.78230872
C       12.86309934      14.47982462      35.49834110       0.91259038       0.01314348       0.42176021
C        9.92616937      11.76822674      35.94165627      -0.02390416      -1.61563324      -0.79794189
C        9.08602317      10.63403295      35.47986197      -0.55152836       0.53848312       0.79075417
C       10.10631938      11.01903392      34.52081031       0.24076771      -0.39696690       0.85504104
C        7.70374404      10.87459677      35.01054881       0.76407236      -0.35714504       0.88599325
O        6.82169611      11.36203019      35.64768397       0.10488108      -0.54693666      -1.34398064
O        7.41628282      10.32587607      33.77686081       0.13627787      -1.28443272      -0.45089955
C        6.07813784      10.41420731      33.24048758      -0.97619622       0.14248246       0.24451970
C        9.22514497       9.25564926      36.27827331      -0.01172199      -0.66989533       0.27727839
H        1.69784929      17.63549952      30.85408351       0.07110374       0.22677949       0.04321246
H        3.07707329      18.03666234      31.74265104       0.17361340      -0.18439217      -0.10225024
H        1.71528297      17.39071897      32.57987196       0.03258621       0.15868283      -0.02552062
H        2.81402057      15.42083210      30.51217097      -0.05649476       0.17536045      -0.27820317
H        5.10700722      14.07997023      31.50718515       0.17537091       0.14398330       0.10220667
H        4.69136489      13.51474643      33.04765929      -0.04892303       0.06764094      -0.23772545
H        3.63678344      13.19471057      31.70913415       0.01059373      -0.18561604      -0.04249260
H        0.90943081      14.65470930      35.65282268      -0.12885316      -0.04263786      -0.16871876
H       24.93957540      15.88588502      34.96941604       0.01865526       0.07080621      -0.12661450
H        0.16481429      14.27529870      34.16393923       0.11422883       0.02006292      -0.12787497
H        4.57625820      15.63874643      34.41134245       0.07561817      -0.11844372      -0.09002554
H        4.18188061      17.06583012      33.39904749       0.22861934      -0.06301352      -0.04321551
H        5.91177117      15.70274811      30.79096766      -0.07439808       0.19369825       0.02719121
H        5.45706474      17.38567737      31.12806390      -0.04052282       0.12576845       0.39791691
H        7.13640144      16.87238652      31.07332217      -0.25609078       0.24894212      -0.29543737
H        5.30823964      19.66348059      35.60984304      -0.04094498       0.11110802      -0.39288086
H        7.13765833      19.31873382      35.37621628       0.08588047      -0.32248022      -0.03584170
H        8.04779116      15.38867107      32.83301929      -0.16336895      -0.12165583       0.28691305
H        6.84739958      14.11518756      33.16341533      -0.12877947      -0.02623830       0.19282664
H        6.86542568      14.70058861      36.82770881      -0.15983190      -0.03791050      -0.04734994
H        6.01198717      13.76953226      35.53895916      -0.20243466      -0.16600123       0.04078534
H        5.73062670      15.53881864      35.79390680      -0.07450383       0.16611781      -0.14344921
H       10.81134143      17.62624059      33.95980917      -0.10472068       0.31391106      -0.26202122
H        9.91517928      18.43103712      35.40885975       0.08046008       0.07284363      -0.13771114
H        9.06437449      13.57953641      33.93924461      -0.07417870      -0.52544952       0.23258390
H        7.95218563      12.82767515      37.35303951      -0.08447071       0.30791175      -0.10939773
H        9.62766693      12.91165243      37.96031431      -0.10855541      -0.12926739      -0.31434466
H       13.56914270      13.66510940      35.65299912      -0.19706565      -0.15227440       0.09572411
H       13.02466917      15.06477982      34.58693080      -0.26960027       0.11711694       0.06113892
H       12.76311978      15.12083825      36.37441941      -0.11954263       0.03008253      -0.04128931
H       10.64998996      11.35696823      36.60630003       0.16303739       0.57504630       0.04940875
H        9.99643979      11.53173244      33.60848554       0.10023533      -0.03270309       0.08147322
H       11.04897673      10.41120996      34.39284381       0.25738555      -0.44076948      -0.08681956
H        5.27765897      10.40150173      34.01982532      -0.13777210      -0.05368065       0.02880035
H        5.88572498      11.32314265      32.69297334       0.10501138       0.07873113      -0.02723532
H        5.92018141       9.54234860      32.63195376      -0.11591314       0.10678306      -0.04274975
H        9.14529059       8.49601217      35.43619734      -0.15940349      -0.25109218       0.33315507
H       10.16799414       9.13247781      36.86945602       0.10832868      -0.18530450       0.04935875
H        8.32133731       9.12516607      36.83563525       0.17206944      -0.08897513      -0.09329040
C       12.74928738       6.33390798      52.41565338       0.12707529      -0.04943644      -0.82815216
C       12.75395764       6.43933610      53.91207617      -0.74433345       0.70958249      -0.41889735
C       12.77725802       7.67918808      54.72753086      -0.52974129       0.21590247       0.58664489
C       12.98726675       8.96189473      53.90552370      -0.16057824      -0.71621195      -0.34653304
C       13.77188904       7.63664621      55.86654853       0.30760660       0.87475147       0.05913152
O       14.25335055       6.66293319      56.36699466      -0.62998315      -0.51067129      -0.51620577
O       14.05115785       8.89678408      56.32546381      -0.04184901       0.66882929      -0.24226162
C       14.94130099       8.87952393      57.40415099       0.77314777      -0.56630359       0.26858981
C       11.42351333       7.74879618      55.49911455       0.02583963      -0.42313042      -0.30450332
C       10.03023921       7.89979076      54.77542903       0.50595084       0.03154685      -0.93352952
C        9.92205614       9.27973881      54.11720425      -0.08756714      -0.06333651      -0.82127589
C        9.05049759       7.90964282      55.91665699       0.79341121      -0.27813710       0.15919841
O        8.32191740       8.84816307      56.04895513       0.56197477      -0.27561652      -0.27000672
O        9.15012663       6.86636074      56.76404988       0.27573629      -0.11609185       0.24998543
C        8.12398894       6.82924456      57.73588609      -0.60442143       0.18113351      -0.43396635
C        9.76113642       6.66900357      53.78410885       0.33092592       0.03059695      -0.09389155
C        8.43525724       6.53427272      53.00497444      -0.08677423      -0.16822100      -0.10591839
C        8.72425095       5.25871830      52.18743209      -0.14691679      -0.10373658      -0.77455803
C        8.36972288       7.61592113      51.91323797       0.42812330       0.52464416      -0.55519767
O        9.15304306       7.55896376      51.01661378      -0.84720179      -0.74706083       1.18016129
O        7.43843994       8.50634674      52.03230306       0.47640645       0.37372504      -0.07758131
C        7.40440423       9.51600764      51.21071097      -0.29401899       0.20746903      -0.17083481
C        7.23827549       6.59945442      53.91746729      -0.83531724      -0.61530576       0.35997924
C        5.78651788       6.48285902      53.35421268      -0.43675214      -0.35862061       0.42043934
C        5.31872258       7.51233205      52.34770769      -0.32001712      -0.08710563       0.01997425
C        4.90118711       6.46464283      54.62958491       0.09608955       0.38594866       0.54636127
O        5.17757415       5.73237617      55.54679280      -0.01977825      -0.20856259      -0.21560132
O        3.82681096       7.21858500      54.61406462      -0.22105781       0.33624131      -1.17423978
C        3.02763347       7.23174429      55.73624888       0.25656847       0.51833863      -0.83610985
C        5.67283203       5.04015363      52.80699713      -0.21985203       0.06198809      -0.38400842
C        4.41975159       4.57493994      51.97746757       0.55560925      -0.51869504      -0.48845752
C        3.04246096       5.03353589      52.55379595       0.10310460      -0.00196245      -0.10645706
C        4.56241763       2.98507946      52.02241809       0.29531734      -0.41020763       0.21926272
O        5.53533108       2.39136472      52.18129186       0.03608878       0.14999206      -0.72330111
O        3.38419571       2.36094993      51.78770089       0.21304229       0.65467739       0.16996382
C        3.40030250       0.92967235      51.56091085      -0.26581692       0.10687423      -0.42896452
C        4.52981569       5.00180208      50.51927103      -0.39545432       0.54896706      -0.06798421
H       13.53598135       6.84618066      51.88910481      -0.07209485       0.03358536      -0.10791310
H       11.84306685       6.75269446      51.91415829       0.00451798      -0.24151311      -0.17223862
H       12.60162091       5.27162563      52.11299110      -0.12494226       0.15805806       0.03983510
H       12.70736991       5.59695761      54.58029442       0.01391326       0.12567823      -0.03484998
H       13.96419639       9.04876882      53.45849586       0.05185093      -0.06815381       0.19508799
H       12.27781748       9.08968395      53.13246800       0.01892271       0.08489773       0.17430852
H       12.86814021       9.81806864      54.52006384       0.11617628       0.15698955      -0.13520755
H       15.98144811       8.79285786      57.09163595       0.10852053       0.32408236      -0.01258523
H       14.84695455       9.90785036      57.76038049      -0.12806560      -0.06187438       0.12752376
H       14.63404782       8.17797075      58.16746911       0.16056675      -0.14170756       0.08088137
H       11.48891992       8.50378111      56.29919735       0.04819191       0.04595051      -0.07323512
H       11.30453729       6.79501423      56.03263914       0.19938005       0.04184782       0.06603660
H       10.48674117       9.37983675      53.16323373       0.11855161      -0.10226907       0.15636210
H        8.87693435       9.56718696      53.95348550      -0.07099335      -0.18561237      -0.30465807
H       10.33495364      10.00634699      54.82623376       0.01007176       0.09105124       0.14498913
H        7.15033686       6.69121878      57.29725211       0.09262352       0.22598757      -0.16064528
H        8.28672240       5.95678230      58.35085014       0.03760897       0.04331307      -0.02383070
H        8.15740039       7.73611687      58.34555560      -0.05926950       0.02886918      -0.06516418
H       10.60955696       6.64530605      53.14142570      -0.13840151       0.08231177      -0.11755399
H        9.87871399       5.84631774      54.42611571       0.03060898      -0.00632659       0.01445295
H        9.75086053       5.32849763      51.83813755       0.16331757      -0.17923840      -0.08616590
H        8.57299251       4.38074523      52.81617837       0.30950548      -0.05455169       0.11318181
H        8.08181113       5.11507830      51.26715091      -0.35083573      -0.15147259       0.26266617
H        6.59906995      10.19086710      51.46071007       0.07978893       0.03443960      -0.06645535
H        7.94870432       9.64120184      50.31196482       0.38732557       0.08926461       0.16416536
H        7.33156841       5.86287712      54.67646061      -0.19247604      -0.04705736      -0.13123161
H        7.21453994       7.60868979      54.37073079       0.12743391      -0.11031935      -0.14448503
H        5.49747088       8.44382493      52.80899951       0.16178775      -0.05203072      -0.02524717
H        5.78410356       7.44024355      51.39685971       0.01796316      -0.12078919      -0.23082011
H        4.21540631       7.46212349      52.15522654      -0.00491248      -0.05811941      -0.04472303
H        2.40020744       8.08371370      55.21011651       0.06258857       0.12893355      -0.00908791
H        6.45577513       4.85597791      52.08075665      -0.09118239       0.06592981      -0.15544737
H        5.85594470       4.32562895      53.59238975       0.04947307       0.36684525      -0.01609129
H        2.82242819       6.06205741      52.33577848      -0.26116616       0.06514228      -0.10163528
H        2.28576638       4.39109470      52.06684481       0.06894039      -0.14300255       0.03214203
H        2.98673287       4.82661659      53.62505480       0.23060958       0.23625593       0.15073656
H        2.86144752       0.71215922      50.65383463      -0.04103517       0.01469685      -0.17162957
H        2.92628031       0.42184235      52.37470399       0.10514790      -0.00340153       0.24104176
H        4.38872942       0.62885039      51.47070144       0.05177416       0.10483617      -0.11133366
H        3.71685044       4.48755047      50.06745975      -0.04759302       0.08913350       0.04062142
H        4.27320203       6.04976085      50.49985125      -0.10539934       0.04949535      -0.04993378
C        5.81813209      13.43962539      50.88616051       0.15822715      -0.64045994       0.75750867
C        4.94376971      13.79080414      52.03586337       0.22321746       2.17315816      -0.38081267
C        4.19987867      12.70579386      52.89469557      -0.07398068      -0.46214784      -1.01640285
C        4.29069924      11.23455574      52.53934631      -1.33715243      -0.57582339       0.54570988
C        2.68239541      13.04283426      53.01462556       0.05677974      -1.51919094       0.43864783
O        1.81281979      12.20785107      52.73024775      -1.60416108      -0.05333411      -0.75188574
O        2.42701295      14.36113071      53.25899687       0.56137494      -0.29799095      -0.33822110
C        1.11635805      14.92209039      53.01429995      -0.24991271       0.26146263      -0.66344429
C        5.31634084      13.59928468      53.54458172      -0.23558974      -0.42431475      -0.16032387
C        6.58350366      13.06678494      54.14997627       0.70060240       0.91380964       0.53692565
C        7.72214533      12.77519399      53.25002519      -0.64904339       0.42722138       0.39608657
C        6.34133035      11.79668405      54.90876664       0.90479335       0.49114208      -0.36129760
O        6.20048651      10.64202840      54.55910232      -1.21593277       0.37346707       0.84079325
O        6.28238368      12.04832715      56.23888841      -0.45595616       0.71616092       0.62514195
C        6.27733337      11.07118304      57.09156088       0.76359540      -0.43629146      -0.48197547
C        7.04266296      14.13125989      55.21057757      -0.73997472       0.53661555      -0.61825998
C        8.35311268      14.13142175      55.99759450      -0.76186374       0.39040255      -0.81648840
C        9.59094760      14.39451104      54.97944516      -0.52158421       0.80105016       0.48663918
C        8.63837298      12.76804825      56.61440785       0.23714740       0.18687930       1.55512684
O        9.08694373      11.78632597      56.04787288      -0.70116020       0.12655143       0.50690503
O        8.65405809      12.94787544      57.97957394       0.68330807      -1.57373756       0.08116768
C        9.36465986      12.25947532      58.76825691       0.74885293      -0.05812845      -1.00063065
C        8.31518679      15.20800636      57.11550367      -0.14275681       1.01324663       0.55001403
C        8.43201299      16.78865424      56.72955759       0.36538957      -0.30619666      -0.75339450
C        9.88989668      17.17145960      56.63727699      -0.14408979      -0.21811461       0.36787656
C        7.59814273      17.32403349      55.51753856       0.14855213      -0.75286108       0.13174895
O        6.42717429      17.20285349      55.44572002       0.21220273       0.74756186       0.25987429
O        8.40316273      17.96984289      54.61250814       0.61786836      -0.91925157       0.65648111
C        7.72126764      18.58761861      53.53339413      -0.64364246      -0.31375804      -0.17221934
C        7.86430395      17.48045884      57.93612060      -0.00809527      -1.16425873      -0.24715112
C        8.00524437      18.78065647      58.64798954      -0.46008532       0.26805003       0.45102531
C        7.70156450      19.90339872      57.63931916      -0.12025995       0.11760706      -0.46779741
C        9.40953347      19.08581705      59.22153766       0.38794596      -0.47422759       0.29210646
O        9.69260662      18.70627874      60.31033672       0.13423900       0.24755083      -0.13703520
O       10.15314110      19.87476669      58.47087383       0.69438203      -0.31193535      -0.25350402
C       11.48839989      20.02927256      58.86032974       0.23968975      -0.06997018       0.32744404
C        7.02995601      18.90335522      59.84096631      -0.53631843       1.05244096      -0.74776888
H        6.45966328      12.60210318      51.11524670       0.30097249      -0.18052210      -0.20170814
H        6.38365574      14.26622751      50.43010605       0.18905075      -0.35325320      -0.21463867
H        5.18833474      12.96602232      50.09990392      -0.02206965      -0.17022592       0.21377723
H        4.28637327      14.66405921      51.85184796       0.05361654      -0.14445057      -0.39931870
H        4.10389678      10.52287337      53.32361147       0.27332143      -0.20438256       0.07442729
H        5.28974847      11.11344483      52.18502403       0.05776340      -0.23753246       0.12234933
H        3.58952792      11.00857956      51.71513456       0.26941672      -0.44336745      -0.06149705
H        0.40044534      14.54497984      53.70008683      -0.00208447       0.06487122      -0.04321214
H        1.14646976      15.95788042      53.21008673      -0.39587157       0.00468340       0.27518626
H        0.83570164      14.68371611      52.02419888      -0.17882186       0.01527377      -0.09057487
H        4.81158051      14.59228436      53.93446809       0.01455839       0.01345453       0.14606012
H        8.51512932      12.34655346      53.86246944      -0.23933799      -0.09424583      -0.01385235
H        7.36255104      11.82220742      52.80467658       0.30613123      -0.09193169      -0.09466249
H        5.66497957      11.17530244      57.97504296       0.10672858      -0.21000047       0.04027859
H        6.94223625      10.20316527      56.93846951      -0.02657537       0.13216700      -0.01512356
H        6.95794184      15.10189529      54.67600132       0.24541120       0.04640530       0.04621928
H        6.22914849      14.08585921      55.92854307      -0.02596651      -0.22153781      -0.34582885
H       10.41961507      14.59365156      55.59878660      -0.07662776      -0.05952659      -0.01543468
H        9.81796748      13.55907814      54.32520973       0.00493859      -0.29198321       0.13278856
H        9.40427726      15.26184657      54.29643685      -0.00897701      -0.11265606       0.04183431
H        8.94684031      12.44241480      59.77027567       0.21343615      -0.17994818      -0.01584865
H       10.23017796      11.63504022      58.51775992      -0.01602955      -0.11419390      -0.27610135
H        9.09167609      15.05277727      57.83989940       0.07893335      -0.02729573      -0.09752625
H        7.36242626      15.04418509      57.67340293      -0.01114297      -0.03506442       0.12195338
H       10.41811946      16.55326054      55.90158891       0.16461476       0.13225458      -0.05932223
H       10.04249733      18.23358904      56.46755930      -0.21493916       0.05744442      -0.00431724
H       10.37744042      16.89418337      57.60296897      -0.03429368       0.15024899       0.01895139
H        6.77080316      18.95671131      53.82589480      -0.08505654      -0.01133364      -0.12652307
H        7.59010853      17.84052186      52.77051392      -0.07241138      -0.02496936      -0.09909933
H        8.28203553      19.39863421      53.07061606       0.08210311      -0.02339587       0.05173660
H        7.02963496      16.95887498      58.35080479      -0.00299626       0.08358013       0.13492563
H        6.65170799      19.78521726      57.34377591      -0.11885615      -0.17112547       0.05354928
H        8.35712480      19.88637486      56.74119092      -0.11133239      -0.20700205      -0.16926332
H        7.83083972      20.86426386      58.13861508       0.16395046       0.09227308      -0.29861458
H       11.96373843      20.61778576      58.06770533       0.36510872      -0.08133613       0.07702783
H       11.54526344      20.36968523      59.86375170      -0.04569508       0.02597486       0.04477149
H        6.01728368      18.82629278      59.45885291       0.01999154       0.09909706       0.14569149
H        7.31671389      18.22812462      60.62975975      -0.13140363       0.08204733      -0.04265101
H        7.06880014      19.91910242      60.24660635      -0.12699445       0.08666308       0.09670761
C        2.71844261      16.48935048      24.68811762      -0.43324896      -0.23726281      -0.95192503
C        2.22798440      17.07829816      25.96063090       0.03580354       0.18583700       0.61012528
C        3.34362723      17.46059260      27.04426758       1.01916700       0.15257621       0.53482346
C        3.68443516      16.09902781      27.66046863      -0.60877485      -0.27928020      -0.52429406
C        2.78441484      18.40863844      28.05311077       0.03136607       0.75451055       0.28874342
O        3.25386542      18.65930448      29.11423964      -0.94505397      -0.32104578       0.82545422
O        1.67040118      19.10704351      27.62112699       1.00007442       0.79351467       0.98840781
C        1.20299472      20.11530624      28.14429996       0.28308994       0.44248083      -0.34879896
C        4.60666364      18.09877874      26.48270776       0.02268401       0.18930992      -0.86199922
C        4.53508691      19.48992490      25.83089842       0.01299788       0.27582858       0.27991357
C        5.90214296      19.54049866      25.06683307      -0.12923223       0.39272555      -0.04264935
C        4.61896307      20.61377575      26.81807397      -0.49462344       0.73842194      -0.67249460
O        3.65624707      21.25513290      27.17895250      -0.76082497      -0.19929850      -0.13980603
O        5.75988206      20.79735797      27.48676981      -0.54340930      -0.38245463      -0.17888865
C        5.86319219      21.94061386      28.36017949      -0.39373549      -0.44625739       0.41080224
C        3.26720423      19.73955610      24.97801281      -0.21244687       0.21158289       0.04122693
C        3.36746634      20.66011916      23.72021935      -0.01201621      -0.46072878       0.27512556
C        3.91920088      22.06837333      24.17776995       0.36110893      -0.75848748      -0.34207369
C        4.28098970      19.86840599      22.87824462      -0.18389872      -0.70919561       0.43312328
O        4.33124378      18.67570854      22.70626598       0.09372503      -0.74374053       0.54248992
O        5.14023195      20.68369440      22.24928691       0.43851257      -0.55575845      -0.69352881
C        6.10086784      20.02614553      21.37852662      -0.97085388      -0.08918846       0.08913729
C        2.05120326      20.88734179      23.08205154      -0.00937118       0.15429314      -0.07923043
C        0.86330282      20.04864997      22.94050005      -0.38303016       0.18637654      -0.16734797
C        0.98618852      18.77485680      22.04409470       0.11138714       0.17737334      -0.68212360
C       25.13134268      20.99360426      22.18916490       0.45210064       0.38440806       1.22196384
O       25.05504146      20.91656679      20.98605272      -0.06556554       0.17573095      -0.39422683
O       24.52421030      22.00136481      22.86245822      -0.43373281      -0.06981888      -0.27541292
C       23.79486519      22.89525058      22.01939753      -0.82662276       0.77084227      -0.48623310
C        0.31211486      19.82540923      24.25157558       0.51418773       0.41875764      -0.27719872
C       24.26214409      19.09599397      24.57084506       0.17110760       0.06945027       0.06853558
C       24.31891525      17.61572167      24.21951910      -0.66642154       0.10911402      -0.27318483
C       22.98593307      19.66924176      23.90128339      -0.02282952       0.63146645       0.36824131
O       22.59856533      19.39421642      22.78977870       0.39335187      -0.42371070      -0.38612604
O       22.22906578      20.24198089      24.86666865       1.22650122      -0.74435210      -0.52015106
C       20.88848124      20.55201896      24.43366246       0.57946553       1.05899051       0.40410204
C       24.07731270      19.07348924      26.11933345       0.82613207       0.79631631      -0.69889290
H        2.95846552      17.12655071      23.86841128      -0.10644150       0.14424890       0.20195842
H        3.00045483      15.46464711      24.65259275      -0.27583942      -0.06306032       0.13385762
H        1.67274981      17.97020081      25.75496970      -0.00262579       0.00652311       0.10091820
H        1.62252576      16.37567163      26.58671720      -0.07675269       0.00035462       0.14827618
H        4.45346180      16.22929255      28.42928301      -0.01681780      -0.01341670      -0.13524085
H        2.82870582      15.58438057      28.07059799      -0.03153744      -0.13817490      -0.13896384
H        3.97776575      15.52076279      26.78178688       0.30139854       0.03394647      -0.15608881
H        1.70087446      20.56151265      28.99155824      -0.32921393       0.01126333      -0.37517311
H        0.22802809      20.34770277      27.65961115      -0.24467429      -0.18221722       0.08165359
H        4.98751477      17.46972733      25.71363274      -0.08203552       0.05836781      -0.09816499
H        5.36684571      18.09962948      27.26625387      -0.11778181       0.04680697       0.03066679
H        5.93953996      18.84188210      24.25776424       0.12304352       0.02523398      -0.01929518
H        6.23433006      20.50404388      24.63959273       0.07033846       0.08254812       0.02770273
H        6.66575604      19.24114077      25.78686707       0.22516473      -0.06497424      -0.06279188
H        5.79819831      21.69952497      29.41165419       0.21306874      -0.26642800       0.03961615
H        5.04829734      22.65452524      28.15607778      -0.08932744       0.14679503       0.08560102
H        6.80390993      22.44960164      28.10173682      -0.08274507       0.10466896      -0.05767104
H        2.49477248      20.17553808      25.63526165       0.07895589       0.03997195      -0.05929789
H        2.94548318      18.80087976      24.51559965       0.15066425       0.13002221      -0.04828305
H        3.99687229      22.61753857      23.23896866      -0.07693735      -0.12311439       0.19643336
H        3.22870476      22.47096442      24.90188745       0.12761868       0.01168940      -0.01724117
H        4.88903053      22.10368725      24.61530501       0.01382957      -0.06841141       0.08086438
H        6.64906655      20.87480093      20.94616647      -0.14647297       0.02539238       0.03416404
H        5.57763033      19.52410738      20.59500305      -0.08159785      -0.01368442      -0.02886600
H        6.72796464      19.37495003      21.96150149      -0.02199995      -0.13896610      -0.00520853
H        1.87992579      21.92606178      22.89864800       0.03269222       0.10338597      -0.23574505
H        1.51242777      17.96110687      22.55399481       0.02115625      -0.00786991       0.00886972
H        1.60938524      18.99535989      21.17429200      -0.04566633       0.13977296      -0.05570831
H        0.00364489      18.36753710      21.76443422      -0.02743329       0.28685287      -0.30074278
H       23.28316004      23.64451269      22.67674478      -0.07907793       0.02472697       0.09193268
H       24.30424958      23.45751101      21.24170245       0.00035307      -0.26581092      -0.06373657
H       22.93402341      22.42844802      21.50552343      -0.03838536       0.10381708      -0.08769774
H       23.39363865      17.08356501      24.53212094      -0.05814035      -0.11621563       0.14860116
H        0.03913538      17.19695941      24.71447638       0.17414158       0.11812546       0.05396345
H       24.32749258      17.39995403      23.17294287      -0.06412784       0.06366572      -0.09314155
H       20.38931619      20.97137984      25.31740033       0.11452902      -0.16424002       0.08139431
H       20.36421566      19.63806468      24.11502210       0.22700359      -0.07067302       0.08788278
H       20.89491722      21.23804558      23.61101820      -0.19625734       0.00583012       0.16309927
H       24.97258755      18.63331918      26.52464342      -0.03588054       0.14793656       0.25040669
H       24.06722452      20.08751837      26.54428325       0.04215236       0.09987061       0.23180150
H       23.16203583      18.58674027      26.46255346       0.17688881       0.06298569       0.07381657
C       19.70166913       3.78273115      10.01575269      -2.04491340       0.68008368      -1.08729670
C       19.97516422       5.05059996       9.80660764       0.14462111      -0.40350952       0.18287843
C       19.76401087       5.02840204      13.93879217      -0.22172305      -0.48618307      -1.00838228
C       20.68701673       6.16596003      14.13020379       0.16031802      -1.56137190       0.32320774
C       18.40752146       5.29851661      13.17415173      -0.16774224      -1.26677838      -0.94934118
O       17.68778755       4.43291944      12.83420342      -1.39323584      -0.43358764       0.05603592
O       18.42044749       6.57583558      12.57813836       1.31494503       0.78023099      -1.03220915
C       17.32088354       6.95874577      11.72274557      -0.82667788      -0.53114857       0.67574500
C       20.28524485       3.91867505      14.24316959       0.11320740       1.51572923      -0.46641072
C       21.74865148       4.05103195      14.54532235       0.01561802       0.75008622      -0.68207523
C       22.52148898       3.38770303      13.30457054      -0.24947042      -0.61083514       1.19158315
C       21.91487109       5.54301439      14.47430616       0.14116291      -1.09828048      -2.79463222
O       23.05491434       6.06670276      14.23540098       0.36812126       0.86791598       0.23774665
O        1.27004749       4.61928805      14.62015406      -0.26164123      -0.47286956      -0.32186613
C        0.43494752       4.95810598      15.40756804       0.96346943       0.33139930      -0.96529684
C       22.02071704       3.50035559      15.97785108       1.17313866       1.10719904       1.22767944
C       21.19846132       2.22228225      16.20246086       0.94768106       0.36779041      -0.17307264
C       19.67583926       2.44743261      16.57032910      -0.73576820       0.33766003       0.45239592
C       21.50399782       1.10012719      15.26050621      -0.05392481       0.79839843       0.49413351
O       22.61902265       0.74666824      14.94492591       1.72275296      -0.36266010      -0.46705442
O       20.42435438       0.46688940      14.91100057       0.98949377      -0.73727965      -0.24726887
C       20.59645466      24.65373842      13.90686244       0.68357951       0.07529540      -0.35103615
C       20.69213951       2.16510430      17.70208091       0.11136067      -0.39369724      -0.35594474
C       20.72005061       0.84895425      18.62809663       0.03510268       0.59818969      -0.16556254
C       21.07004673      24.58383446      17.90809300      -0.24085756       0.22278404      -0.54451504
C       21.74765677       1.11229322      19.83092289      -1.49593043       0.41208482      -0.60575032
O       22.34696772       0.14739796      20.16347428       0.64471918      -1.99117986      -0.84019549
O       21.80744402       2.34037439      20.29495565       0.08872504       0.10482817       0.56583650
C       22.74699792       2.46829425      21.27871702      -0.47979681       0.21640663      -0.70335556
C       19.22512248       0.72318550      19.08284155       0.21865417      -0.80001898      -0.28203313
C       18.93751880      24.55885008      20.01940408       1.23847741       1.59859845      -0.28890004
C       19.19832059      24.89969465      21.53688962      -0.35897642       0.55074215       0.08917799
C       17.39702580      24.53768167      19.82047941       0.34096060      -0.04944293      -0.09565217
O       16.58045045      24.99296939      20.53789691      -0.35222553       0.89511829      -1.02763867
O       16.95421507      23.81459896      18.77188824      -0.36045578      -0.49848509      -0.60439837
C       15.53871863      23.56767757      18.77597874      -0.00370712      -0.29910996       0.46350167
C       19.79013733      23.37462637      19.70748128       0.80902312      -1.40049580       0.05717656
H       19.13250545       3.43761145      10.86534935      -0.01551641      -0.11691460       0.03033533
H       19.96936841       2.91309046       9.37362776      -0.06761242      -0.02000218       0.14202050
H       20.04275305       5.98045088      10.42216766      -0.31098983       0.00330698       0.00912315
H       20.19473232       5.22971475       8.77253427       0.07038447       0.31578935      -0.15140282
H       20.53025494       7.20234969      14.08831865      -0.60170859      -0.48245205       0.34765558
H       17.56131640       6.99914238      10.65285265      -0.15164352      -0.13928974       0.08604140
H       17.02637660       7.92533591      12.13176053       0.05305246       0.03942463       0.19808670
H       16.44665647       6.34392872      11.89743937       0.04412048      -0.10601963      -0.12216831
H       22.00482621       2.44471670      13.32623371       0.58549236      -0.05260785      -0.07914778
H       23.56995068       3.25538422      13.53220808       0.13024108      -0.18453471      -0.14201259
H       22.37366430       3.94147589      12.36357384      -0.23221318       0.08182918       0.31335821
H        0.59860512       5.78875766      16.06448029      -0.00253993       0.04969982      -0.03373811
H       24.59526549       4.58053842      15.26822603      -0.13674481      -0.09340084      -0.19598899
H       21.90873705       4.38293648      16.58549146       0.18641250       0.19302210       0.14118816
H       23.11482711       3.31121741      15.97899614       0.22626670      -0.28621436      -0.22278837
H       19.29730058       3.50231558      16.62391800      -0.13522719      -0.12288252      -0.19060506
H       19.04132129       1.64021091      16.55959187       0.13292517      -0.04464568       0.10962872
H       19.79006971      23.95553494      14.02541974       0.20883283       0.08501900       0.09512056
H       21.55501533      24.13588503      13.96045322       0.06135899      -0.00551329      -0.07103644
H       20.56117940      25.13414361      12.90798162      -0.41272253      -0.10925239       0.02988212
H       20.99522133       3.04752342      18.30512232      -0.02412116       0.06394439       0.01337969
H       22.07540158      24.22533665      17.78531567       0.03356001      -0.33690711      -0.14532066
H       20.66564077      24.70420439      16.87100568      -0.17767199       0.06959858       0.06644955
H       20.47866810      23.85520002      18.74682052       0.36835428      -0.76884358       0.03527782
H       22.43034271       2.02002671      22.15965470      -0.07734383       0.26092908      -0.28519617
H       22.63767386       3.54429187      21.39089430      -0.04660673       0.33031207       0.36072516
H       23.76148726       2.13083023      21.06239232      -0.09539688       0.11652235      -0.05574727
H       19.17818987       1.59977291      19.70917330      -0.14064151      -0.08898230      -0.16161395
H       18.56161973       0.79633463      18.20855032       0.01141748       0.01253496       0.08617015
H       18.84115606      24.17510143      22.29642156      -0.12525436      -0.28396735      -0.38128532
H       18.67790750       0.70004667      21.75954908       0.06968991       0.12398963       0.20297158
H       20.26716332      24.91832422      21.63628440      -0.22803047       0.01520978      -0.06624930
H       15.14776680      24.36871267      18.22710934       0.02880034      -0.06577753      -0.07421071
H       15.44390849      22.69273386      18.19706854      -0.06335578       0.09179945      -0.16960275
H       15.02049115      23.34839923      19.72421996       0.06811209       0.35832221       0.09779799
H       19.09015938      22.57006186      19.33519085      -0.18624695       0.15728412       0.28321275
H       20.40118385      22.74243094      20.50260214       0.05993300      -0.46677349      -0.17086228
C        5.85248426      22.70215563      55.42078446       0.53223061      -1.12346652      -0.42152770
C        6.73000982      23.57610327      55.18926119      -0.06818934      -1.31982331      -0.15187283
C        7.83732543      24.11847707      56.13157341       0.39905611       0.61424522      -0.67738118
C        8.09009107       0.44419905      55.88214150       0.30295689       0.55973125       1.09088870
C        7.50465523      24.03511076      57.57480347      -0.42761535       0.96278022       0.86662234
O        7.19806429      23.08010024      58.25027718      -0.78179767      -0.46618607       0.61351288
O        7.56258121       0.10735193      58.06730406      -0.50131464       0.48494372       0.46199985
C        7.71550897       0.43880006      59.35400932      -0.52049289       0.57259487       0.55243249
C        9.07490321      23.28853959      55.97738604       0.68417702       1.11916459      -0.13368613
C        9.53033544      22.62999935      54.71275929       0.51933744       0.28431818       0.81875617
C        8.73617149      21.36039580      54.43216283       0.35092384       0.04133522       1.06100610
C       10.93383415      22.03751749      55.13963754       1.01667203       1.57849872       0.60058589
O       11.89822157      22.71045682      55.34516702       0.28077625      -0.01966091       1.01280088
O       10.88646416      20.68400336      55.33088360      -0.79157623      -0.07567573      -0.23029326
C       11.93957953      19.82815325      55.46045965      -0.07488782      -0.11974455       0.11936359
C        9.77853286      23.66780524      53.69680686       1.03753179      -0.00846532       0.79118981
C       10.18010537      23.31890060      52.32204131      -0.10010766       0.25251936      -0.25042855
C        8.95772349      22.76829357      51.46203842       0.46168700      -0.25275170      -0.53138078
C       11.12569187      22.17730755      52.42440826       0.21045604       1.01866113       0.08559162
O       10.85853207      21.00357433      52.28596411       0.08848361      -0.31553101      -0.35558641
O       12.35552927      22.53228608      52.66782051      -2.07611106       0.07870990       0.82647897
C       13.33047613      21.54732503      52.92874120       0.82401439      -1.27692376       0.17387906
C       10.85616057      24.49737287      51.62211197      -0.56230930       1.07198767      -0.62833077
C       10.28774219       0.70566082      51.13566036       0.51123979      -0.00190973       1.32022781
C        8.86442482       0.51303365      50.62295712      -0.95979554      -0.00975127       0.11501745
C       10.13994923       1.58157558      52.46063537      -0.73408534      -0.03842416      -1.17239612
O        9.13601408       1.71654771      53.16725327       0.39485612       0.16321054       0.06553635
O       11.21113454       2.30671856      52.52849371       0.82974653       0.29746640      -0.06081526
C       11.31587124       3.26690164      53.58236771      -0.09052041       1.35654232       0.11282268
C       11.38132367       1.20300190      50.28061420       0.38343621       0.42829871       0.51307947
C       11.00832474       2.52977113      49.51957863      -1.36227873      -1.27768612      -1.53318273
C       12.15818908       3.47073379      49.23873229      -1.07328920      -0.20646168       1.01810633
C       10.17545133       2.24677410      48.28187718      -0.60218646       0.56787990      -0.60530457
O        9.22925334       2.86493780      47.88056724      -0.01551768      -0.46428410      -0.45234974
O       10.57242005       1.13584663      47.66449824       0.15302627       0.45630832       0.39108798
C        9.82887141       0.89862421      46.38171392      -0.24702736       1.09895661       0.10956659
C       10.85970813       3.85736497      50.11006409       0.69303278       0.07913967      -0.35184240
H        5.86178241      22.18390221      56.36461593      -0.13318666      -0.00887943       0.25366334
H        5.10018095      22.40393032      54.75514798       0.39973617      -0.11432623       0.40610766
H        6.85632820      23.86974988      54.14915838       0.05095609      -0.19834800       0.15857151
H        8.39099646       0.65810665      54.82677351      -0.08347734       0.22615786      -0.16897171
H        7.19745141       0.98000374      56.01945464       0.35438683       0.18705336      -0.16243322
H        8.81834991       0.91136955      56.52640876      -0.13998809       0.02294863       0.02862020
H        8.14044600      24.84117077      60.01999000      -0.10083613       0.08605799       0.05137297
H        7.53611977       1.46008009      59.41187060      -0.40468098      -0.19675528       0.05513784
H        8.91589880      22.50121143      56.76753489      -0.05670770      -0.00529022       0.05466587
H        7.81395690      21.61795289      53.93349236       0.02329041      -0.14146828      -0.01157259
H        9.39855775      20.75537062      53.85596948      -0.08464500      -0.01909127      -0.12832525
H        8.68685586      20.92743092      55.39297790       0.10532486      -0.03895150       0.10136563
H       11.88235156      19.16292513      56.31063208       0.04174305       0.05870286      -0.14310616
H       12.73845851      19.80566622      54.70403605      -0.17164634      -0.31865269       0.07635717
H        8.86550593      24.21515184      53.48799326       0.15772816       0.10188604       0.25325450
H        8.59143444      21.78716711      51.66582622      -0.19823632       0.15486491      -0.01601337
H        9.24333759      22.67177790      50.44601749      -0.18625569      -0.10116603      -0.17042232
H        8.23213572      23.52031414      51.42216500       0.12323323      -0.02622219      -0.10433587
H       13.67788172      21.69754909      53.94414768      -0.07046575       0.10525546      -0.16187732
H       14.12514049      21.69714062      52.20866136       0.01565941      -0.02229939      -0.07977157
H       12.95266504      20.50486766      52.89340608      -0.12231743       0.13814052      -0.00807664
H       11.90414775      24.67065947      51.94902025      -0.24463144      -0.02237275      -0.03424726
H        8.46140999       1.52811501      50.31253008      -0.03243069      -0.14175960      -0.04481087
H        8.35801657       0.29648985      51.55785078      -0.15246319      -0.02879042      -0.27827386
H        8.85533831      24.80286990      49.94954724      -0.16881930      -0.23068337      -0.21971715
H       11.89026439       4.00738746      53.03352928      -0.18224873      -0.24499559       0.07733041
H       12.22550150       1.44519955      50.97237136       0.39378858       0.07719162      -0.60959351
H       11.75269182       0.44284991      49.64497144       0.14034617      -0.04919580       0.11243388
H       12.87287730       3.43965948      49.99686564      -0.26026772       0.21795494       0.19320039
H        8.82949140       0.50570704      46.59893994       0.23917674      -0.04271016      -0.17420248
H       10.29141638       0.12157389      45.84860097      -0.01221033      -0.03072827       0.32752474
H        9.68532232       1.84988258      45.80046842      -0.05169711       0.42323725      -0.22201432
H       11.15235256       3.78700106      51.08682885      -0.03863862       0.24823153       0.29758375
H       10.11268334       4.56406500      49.75636599       0.10323590       0.29583634      -0.21410921
C       13.46310195       0.47144166       1.31371514       0.96354049      -0.61002852       0.01397548
C       12.58014753       0.23784387       2.53519542       0.95749244      -0.02764238       0.68725730
C       13.24821002      24.41181878       3.60333466       1.00782243      -0.49741291       1.25615801
C       13.62785360      23.09549713       2.98346497       0.79261666      -0.41514615       0.86637072
C       12.15173396      24.18441628       4.59648193       0.24616698       0.39951518       0.32213571
O       11.94037968      24.73740868       5.61142135      -0.45889569      -0.59457418      -1.35886840
O       11.12950558      23.45018659       4.04136983       0.41602306       0.63744701       1.07910024
C       10.05815928      23.14558704       4.76807640       0.36237783      -0.16658489       0.28638224
C       14.30212645       0.02542525       4.36397099      -0.53110538      -0.75609847       0.50553495
C       15.36267740      24.33822601       5.20764072       0.15118626       0.08347566      -0.05166900
C       14.81681215      23.08625525       5.91098542      -0.79867238       0.69113302       0.72711614
C       15.81673534       0.35363448       6.16961706      -0.09929125      -0.77384185      -0.36017234
O       16.34604255       1.38626221       5.83574170      -0.40247736      -0.11824314      -0.02010259
O       15.27103133       0.11192546       7.37050653       1.04916613       0.14563418      -1.20125940
C       15.25872071       1.26487536       8.24947716      -0.02638972      -0.05851608       1.14961521
C       16.66310571      23.97365812       4.32362816       0.48400679      -0.57188027      -0.72771094
C       18.11040527      23.83918500       4.97935080      -0.20638716      -0.52074497       0.82850822
C       18.03870812      23.34757291       6.32594935       0.11561451       0.13105757      -0.28826208
C       18.84079514      22.86684456       4.01026239      -0.19651624       0.28162813      -0.00785453
O       19.51104208      21.91673699       4.36566080       1.92262517       0.30547169       0.48459466
O       18.56957621      23.06634193       2.75308787      -0.73213432       0.32514978      -0.79616479
C       19.58754803      22.64695390       1.86805189      -1.00704435      -0.21224821      -0.07747848
C       18.79387175       0.10534045       5.06151700       1.22520309      -0.10022923      -0.60614804
C       20.31318852       0.16598730       4.67835578      -0.47471186      -0.47515814      -0.35432242
C       20.58463301      24.78412051       3.29439912      -0.53033315       0.00232359       0.08751050
C       20.68100243       1.65747355       4.81871494      -0.76470313       0.00349895      -0.14767396
O       20.57039004       2.48777831       3.99501437      -0.13918815      -0.12128228       0.83801501
O       20.98757113       2.00197595       6.07571858      -0.81769227       0.21821878       0.65174475
C       21.32812443       3.36260817       6.32537754       0.46271118      -0.00952032       0.13652015
C       21.25093321      24.48965734       5.62203427       0.27333373      -0.91257063      -1.59668623
C       22.80498819      24.37721063       5.30727042      -0.61890440      -0.57200324      -0.56737700
C       23.35639219       0.67843748       4.95422569      -0.04187309       0.15088627      -0.27379420
C       23.18659103      23.34112566       4.35207925      -0.50206976      -0.40159067      -0.84558240
O       22.94934247      22.14265757       4.53838876       0.37734371       1.10142925       0.23164598
O       23.71041588      23.78127090       3.20585844      -0.82391975       0.47647103      -0.15274992
C       24.19184340      22.78154321       2.35792173      -0.06953174       0.18751725      -0.15135843
C       23.58752189      23.84661520       6.49523835       1.03534686      -0.13073088       0.62940101
H       13.28554550       1.26735463       0.56381709       0.00537488       0.13544889       0.08413921
H       14.46574618       0.68240020       1.61649451      -0.14079771       0.05561730      -0.18612590
H       13.54700907      24.73126909       0.61244524      -0.05253466       0.00382947       0.13114272
H       11.57188308      25.02191831       2.31766562       0.04298306       0.09811148      -0.20092344
H       12.48117569       1.19999728       2.96375653      -0.10683796      -0.17946037      -0.01531854
H       12.84432546      22.76561938       2.30538981      -0.19581137       0.04025884       0.25051837
H       13.55585765      22.30593616       3.72951665       0.16435166       0.05738740       0.18303488
H       14.60313389      23.02711853       2.53579916       0.03517553      -0.12400560       0.00298703
H        9.94744774      22.10210702       5.12963529       0.25058821      -0.00185461      -0.15120220
H        9.26907241      23.85464035       4.68870892       0.00368751      -0.24453901       0.13343604
H       14.83476759       0.61742473       3.64921920      -0.15896455      -0.04998943       0.07325289
H       13.80848504       0.84734441       4.90648966      -0.05217432      -0.23135515       0.13907691
H       13.77174506      23.18507476       6.13883968      -0.09722883       0.22123664      -0.02102381
H       14.95493261      22.23600700       5.23969077      -0.24901008      -0.02597214       0.07097530
H       15.30351074      22.76512286       6.81937560      -0.11603403       0.10644027       0.11291952
H       16.24411525       1.43963679       8.70967978       0.10645643      -0.30819429       0.02864877
H       14.54033884       1.03442195       9.06071895       0.15922096      -0.16060080       0.17400607
H       15.03921812       2.16429935       7.65688933      -0.12874527      -0.14689271      -0.05089318
H       16.39009806      23.00211626       3.89376409       0.12488044      -0.03469646      -0.06303115
H       16.72325674      24.63663622       3.51056096      -0.17075053      -0.19399899      -0.02807449
H       17.49820954      22.45762219       6.56973171       0.26458557      -0.09765203      -0.02143611
H       18.86953472      23.59725646       6.95292704       0.14107571       0.01937167      -0.33070630
H       20.50410575      22.45527182       2.42687457      -0.07924345       0.08358456       0.09827312
H       19.80574752      23.42369916       1.17645703      -0.03775436       0.06727079      -0.12285007
H       19.39897111      21.73572027       1.34535652      -0.07608103       0.04127914       0.10142918
H       18.32487681       0.80933402       4.29460781       0.07764208      -0.20282859       0.06273566
H       18.72224523       0.44880693       6.06100996       0.17660780       0.01364244       0.24414485
H       21.55069695      25.09859226       2.97489893      -0.13792538       0.22670639       0.07498699
H       20.03165120       0.30318009       2.63060692       0.04846858      -0.42539128       0.11818293
H       21.50147231       3.93514375       5.39736863       0.13834398       0.04967025       0.26938588
H       22.22868613       3.29231909       6.99358870      -0.05813350       0.04902961       0.03440774
H       20.45412569       3.71838394       6.88502005       0.31244505       0.29881482       0.16179877
H       21.17928092      24.94983883       6.57760085       0.03576044       0.00161534       0.10408730
H       20.86954058      23.46992668       5.61074425      -0.00727601      -0.01395770       0.02253163
H       22.78735694       1.15190256       4.14172633       0.01103230       0.20630637       0.07178774
H       24.39702368       0.60957628       4.59996976      -0.07548418       0.10793873      -0.09007842
H       23.27384677       1.33525273       5.78126881       0.00836404      -0.08943278       0.05514568
H       23.34470377      22.27557770       1.95815241       0.00502836      -0.02583590      -0.07900244
H       24.83676306      23.21887370       1.60581451       0.08923322       0.07419671      -0.02793081
H       24.78110449      22.10401673       2.93408632      -0.00869929      -0.00185405       0.02022543
H       24.57680390      23.83541393       6.14021944       0.20859785       0.03717878      -0.01516750
H       23.54818501      24.53748858       7.32373189       0.02020864      -0.04803787      -0.37093959
H       23.22286436      22.86335071       6.80764981       0.02981347      -0.13317797      -0.03597871
